12
Step 0
C -36.716084 41.952812 -36.017143
C -36.069187 41.925735 -34.777050
C -36.807362 41.715256 -33.607510
C -38.192432 41.531853 -33.678059
C -38.839329 41.558929 -34.918148
C -38.101154 41.769413 -36.087692
H -36.139828 42.117126 -36.930149
H -34.987930 42.068909 -34.721977
H -36.302361 41.694115 -32.639431
H -38.768688 41.367542 -32.765053
H -39.920586 41.415756 -34.973221
H -38.606155 41.790550 -37.055771
12
Step 1
C -36.713638 41.948147 -36.022193
C -36.067762 41.925441 -34.779122
C -36.813970 41.711574 -33.608397
C -38.196482 41.536928 -33.674930
C -38.837918 41.566435 -34.919639
C -38.099725 41.766359 -36.083690
H -36.123177 42.117894 -36.926913
H -34.980556 42.071431 -34.730693
H -36.281746 41.675281 -32.633877
H -38.778431 41.356936 -32.761902
H -39.905835 41.437317 -34.955480
H -38.608760 41.784594 -37.048501
12
Step 2
C -36.711192 41.943482 -36.027242
C -36.066338 41.925146 -34.781194
C -36.820577 41.707893 -33.609283
C -38.200532 41.542003 -33.671802
C -38.836507 41.573941 -34.921129
C -38.098295 41.763304 -36.079689
H -36.106529 42.118661 -36.923677
H -34.973187 42.073953 -34.739408
H -36.261141 41.656448 -32.628333
H -38.788171 41.346332 -32.758755
H -39.891097 41.458875 -34.937742
H -38.611365 41.778637 -37.041231
12
Step 3
C -36.708746 41.938817 -36.032291
C -36.064913 41.924851 -34.783266
C -36.827182 41.704211 -33.610167
C -38.204582 41.547078 -33.668673
C -38.835094 41.581447 -34.922618
C -38.096865 41.760250 -36.075689
H -36.089887 42.119426 -36.920441
H -34.965827 42.076473 -34.748120
H -36.240551 41.637617 -32.622810
H -38.797906 41.335731 -32.755615
H -39.876383 41.480430 -34.920010
H -38.613970 41.772681 -37.033964
12
Step 4
C -36.706299 41.934153 -36.037339
C -36.063489 41.924556 -34.785338
C -36.833784 41.700530 -33.611050
C -38.208632 41.552152 -33.665544
C -38.833679 41.588953 -34.924105
C -38.095435 41.757196 -36.071691
H -36.073254 42.120189 -36.917205
H -34.958481 42.078990 -34.756829
H -36.219986 41.618789 -32.617317
H -38.807633 41.325135 -32.752485
H -39.861709 41.501981 -34.902287
H -38.616575 41.766726 -37.026699
12
Step 5
C -36.703851 41.929488 -36.042385
C -36.062065 41.924261 -34.787410
C -36.840380 41.696848 -33.611930
C -38.212684 41.557225 -33.662414
C -38.832260 41.596459 -34.925590
C -38.094005 41.754143 -36.067694
H -36.056632 42.120948 -36.913969
H -34.951154 42.081503 -34.765532
H -36.199451 41.599965 -32.611860
H -38.817350 41.314547 -32.749368
H -39.847089 41.523525 -34.884574
H -38.619181 41.760771 -37.019439
12
Step 6
C -36.701401 41.924824 -36.047429
C -36.060641 41.923966 -34.789483
C -36.846970 41.693167 -33.612806
C -38.216735 41.562297 -33.659284
C -38.830837 41.603966 -34.927071
C -38.092574 41.751090 -36.063700
H -36.040024 42.121703 -36.910733
H -34.943849 42.084012 -34.774229
H -36.178954 41.581148 -32.606445
H -38.827055 41.303967 -32.746268
H -39.832538 41.545062 -34.866873
H -38.621788 41.754816 -37.012185
12
Step 7
C -36.698951 41.920161 -36.052472
C -36.059218 41.923670 -34.791555
C -36.853554 41.689486 -33.613680
C -38.220788 41.567369 -33.656153
C -38.829408 41.611473 -34.928549
C -38.091142 41.748037 -36.059710
H -36.023433 42.122453 -36.907497
H -34.936570 42.086516 -34.782918
H -36.158500 41.562338 -32.601079
H -38.836745 41.293398 -32.743188
H -39.818074 41.566591 -34.849186
H -38.624396 41.748863 -37.004936
12
Step 8
C -36.696498 41.915498 -36.057512
C -36.057795 41.923374 -34.793627
C -36.860130 41.685804 -33.614549
C -38.224841 41.572438 -33.653021
C -38.827973 41.618980 -34.930022
C -38.089709 41.744986 -36.055723
H -36.006862 42.123196 -36.904261
H -34.929321 42.089013 -34.791599
H -36.138096 41.543537 -32.595764
H -38.846418 41.282842 -32.740130
H -39.803713 41.588113 -34.831514
H -38.627005 41.742910 -36.997696
12
Step 9
C -36.694043 41.910836 -36.062549
C -36.056373 41.923078 -34.795700
C -36.866697 41.682123 -33.615415
C -38.228895 41.577507 -33.649888
C -38.826530 41.626487 -34.931491
C -38.088276 41.741935 -36.051741
H -35.990315 42.123932 -36.901023
H -34.922105 42.091504 -34.800268
H -36.117745 41.524747 -32.590505
H -38.856071 41.272301 -32.737097
H -39.789471 41.609627 -34.813856
H -38.629615 41.736959 -36.990464
12
Step 10
C -36.691586 41.906175 -36.067583
C -36.054951 41.922781 -34.797772
C -36.873254 41.678441 -33.616277
C -38.232951 41.582573 -33.646753
C -38.825079 41.633995 -34.932955
C -38.086842 41.738884 -36.047763
H -35.973794 42.124660 -36.897785
H -34.914927 42.093987 -34.808927
H -36.097453 41.505968 -32.585304
H -38.865703 41.261777 -32.734092
H -39.775364 41.631134 -34.796212
H -38.632227 41.731009 -36.983242
12
Step 11
C -36.689126 41.901515 -36.072614
C -36.053530 41.922484 -34.799846
C -36.879801 41.674759 -33.617134
C -38.237007 41.587637 -33.643617
C -38.823618 41.641502 -34.934414
C -38.085407 41.735835 -36.043791
H -35.957302 42.125379 -36.894545
H -34.907787 42.096462 -34.817572
H -36.077223 41.487203 -32.580163
H -38.875310 41.251272 -32.731118
H -39.761407 41.652636 -34.778581
H -38.634840 41.725060 -36.976031
12
Step 12
C -36.686664 41.896855 -36.077641
C -36.052109 41.922187 -34.801919
C -36.886337 41.671078 -33.617987
C -38.241065 41.592699 -33.640480
C -38.822147 41.649010 -34.935867
C -38.083970 41.732786 -36.039825
H -35.940844 42.126087 -36.891304
H -34.900691 42.098927 -34.826204
H -36.057060 41.468453 -32.575083
H -38.884891 41.240788 -32.728177
H -39.747615 41.674134 -34.760960
H -38.637455 41.719114 -36.968831
12
Step 13
C -36.684198 41.892197 -36.082665
C -36.050690 41.921889 -34.803993
C -36.892861 41.667395 -33.618836
C -38.245125 41.597759 -33.637342
C -38.820664 41.656517 -34.937314
C -38.082532 41.729738 -36.035865
H -35.924421 42.126784 -36.888060
H -34.893641 42.101384 -34.834820
H -36.036966 41.449718 -32.570067
H -38.894443 41.230328 -32.725272
H -39.734002 41.695630 -34.743347
H -38.640071 41.713169 -36.961644
12
Step 14
C -36.681729 41.887540 -36.087684
C -36.049271 41.921590 -34.806067
C -36.899373 41.663713 -33.619680
C -38.249186 41.602816 -33.634202
C -38.819169 41.664023 -34.938755
C -38.081093 41.726692 -36.031913
H -35.908038 42.127469 -36.884815
H -34.886638 42.103829 -34.843420
H -36.016949 41.431002 -32.565120
H -38.903963 41.219894 -32.722406
H -39.720578 41.717126 -34.725740
H -38.642689 41.707226 -36.954472
12
Step 15
C -36.679256 41.882884 -36.092698
C -36.047853 41.921291 -34.808142
C -36.905871 41.660030 -33.620519
C -38.253249 41.607869 -33.631060
C -38.817661 41.671529 -34.940190
C -38.079652 41.723646 -36.027968
H -35.891698 42.128140 -36.881568
H -34.879687 42.106264 -34.852003
H -35.997014 41.412306 -32.560248
H -38.913448 41.209489 -32.719581
H -39.707354 41.738626 -34.708132
H -38.645307 41.701285 -36.947313
12
Step 16
C -36.676779 41.878229 -36.097708
C -36.046436 41.920991 -34.810217
C -36.912355 41.656347 -33.621352
C -38.257314 41.612920 -33.627918
C -38.816140 41.679034 -34.941618
C -38.078209 41.720601 -36.024032
H -35.875405 42.128798 -36.878320
H -34.872789 42.108688 -34.860567
H -35.977173 41.393633 -32.555461
H -38.922896 41.199113 -32.716799
H -39.694335 41.760132 -34.690518
H -38.647926 41.695347 -36.940170
12
Step 17
C -36.674298 41.873576 -36.102713
C -36.045020 41.920691 -34.812292
C -36.918824 41.652662 -33.622178
C -38.261381 41.617967 -33.624774
C -38.814605 41.686537 -34.943040
C -38.076765 41.717558 -36.020104
H -35.859161 42.129439 -36.875070
H -34.865948 42.111100 -34.869111
H -35.957443 41.374988 -32.550775
H -38.932306 41.188771 -32.714064
H -39.681520 41.781648 -34.672888
H -38.650546 41.689412 -36.933044
12
Step 18
C -36.671812 41.868924 -36.107712
C -36.043605 41.920389 -34.814369
C -36.925275 41.648977 -33.622996
C -38.265452 41.623011 -33.621631
C -38.813056 41.694039 -34.944454
C -38.075318 41.714516 -36.016185
H -35.842970 42.130065 -36.871819
H -34.859166 42.113498 -34.877634
H -35.937839 41.356376 -32.546205
H -38.941677 41.178463 -32.711376
H -39.668904 41.803174 -34.655229
H -38.653166 41.683479 -36.925934
12
Step 19
C -36.669322 41.864274 -36.112705
C -36.042191 41.920087 -34.816446
C -36.931708 41.645290 -33.623804
C -38.269527 41.628051 -33.618488
C -38.811493 41.701538 -34.945861
C -38.073868 41.711474 -36.012276
H -35.826836 42.130674 -36.868568
H -34.852445 42.115884 -34.886136
H -35.918382 41.337804 -32.541769
H -38.951009 41.168191 -32.708739
H -39.656470 41.824712 -34.637524
H -38.655786 41.677549 -36.918842
12
Step 20
C -36.666826 41.859626 -36.117692
C -36.040778 41.919783 -34.818524
C -36.938121 41.641602 -33.624602
C -38.273608 41.633088 -33.615348
C -38.809917 41.709036 -34.947260
C -38.072416 41.708434 -36.008377
H -35.810762 42.131265 -36.865316
H -34.845789 42.118255 -34.894614
H -35.899087 41.319275 -32.537481
H -38.960299 41.157959 -32.706154
H -39.644196 41.846263 -34.619754
H -38.658407 41.671622 -36.911768
12
Step 21
C -36.664326 41.854979 -36.122673
C -36.039366 41.919479 -34.820603
C -36.944514 41.637911 -33.625390
C -38.277697 41.638121 -33.612211
C -38.808328 41.716531 -34.948652
C -38.070961 41.705395 -36.004488
H -35.794752 42.131837 -36.862064
H -34.839199 42.120613 -34.903068
H -35.879969 41.300796 -32.533351
H -38.969548 41.147766 -32.703624
H -39.632053 41.867823 -34.601898
H -38.661028 41.665699 -36.904712
12
Step 22
C -36.661820 41.850335 -36.127647
C -36.037955 41.919173 -34.822683
C -36.950885 41.634219 -33.626166
C -38.281796 41.643152 -33.609080
C -38.806726 41.724024 -34.950036
C -38.069501 41.702357 -36.000610
H -35.778807 42.132390 -36.858811
H -34.832678 42.122955 -34.911497
H -35.861042 41.282370 -32.529386
H -38.978753 41.137617 -32.701149
H -39.620009 41.889390 -34.583932
H -38.663650 41.659779 -36.897676
12
Step 23
C -36.659309 41.845692 -36.132613
C -36.036545 41.918867 -34.824765
C -36.957236 41.630524 -33.626930
C -38.285905 41.648179 -33.605956
C -38.805112 41.731514 -34.951411
C -38.068038 41.699320 -35.996743
H -35.762933 42.132922 -36.855557
H -34.826229 42.125281 -34.919899
H -35.842310 41.263997 -32.525586
H -38.987908 41.127512 -32.698731
H -39.608032 41.910960 -34.565837
H -38.666272 41.653862 -36.890658
12
Step 24
C -36.656793 41.841051 -36.137573
C -36.035136 41.918559 -34.826848
C -36.963566 41.626827 -33.627684
C -38.290028 41.653204 -33.602840
C -38.803487 41.739001 -34.952777
C -38.066571 41.696284 -35.992887
H -35.747131 42.133433 -36.852303
H -34.819854 42.127591 -34.928272
H -35.823774 41.245677 -32.521941
H -38.997010 41.117454 -32.696372
H -39.596090 41.932528 -34.547596
H -38.668896 41.647948 -36.883662
12
Step 25
C -36.654270 41.836412 -36.142524
C -36.033728 41.918250 -34.828934
C -36.969878 41.623129 -33.628429
C -38.294165 41.658227 -33.599734
C -38.801852 41.746486 -34.954134
C -38.065099 41.693248 -35.989044
H -35.731403 42.133923 -36.849048
H -34.813555 42.129884 -34.936615
H -35.805425 41.227406 -32.518436
H -39.006053 41.107444 -32.694070
H -39.584154 41.954089 -34.529196
H -38.671521 41.642038 -36.876686
12
Step 26
C -36.651742 41.831775 -36.147468
C -36.032320 41.917940 -34.831021
C -36.976171 41.619431 -33.629166
C -38.298316 41.663247 -33.596638
C -38.800209 41.753967 -34.955481
C -38.063622 41.690214 -35.985214
H -35.715753 42.134390 -36.845793
H -34.807335 42.132159 -34.944925
H -35.787249 41.209179 -32.515053
H -39.015033 41.097484 -32.691827
H -39.572204 41.975638 -34.510630
H -38.674148 41.636132 -36.869734
12
Step 27
C -36.649207 41.827140 -36.152404
C -36.030914 41.917629 -34.833111
C -36.982448 41.615732 -33.629897
C -38.302483 41.668266 -33.593553
C -38.798558 41.761446 -34.956818
C -38.062140 41.687181 -35.981397
H -35.700180 42.134834 -36.842539
H -34.801197 42.134416 -34.953201
H -35.769231 41.190991 -32.511774
H -39.023948 41.087574 -32.689640
H -39.560223 41.997171 -34.491897
H -38.676779 41.630229 -36.862806
12
Step 28
C -36.646666 41.822508 -36.157332
C -36.029509 41.917317 -34.835203
C -36.988709 41.612033 -33.630623
C -38.306666 41.673283 -33.590479
C -38.796902 41.768923 -34.958143
C -38.060653 41.684148 -35.977594
H -35.684687 42.135254 -36.839285
H -34.795141 42.136653 -34.961441
H -35.751352 41.172835 -32.508580
H -39.032797 41.077714 -32.687509
H -39.548205 42.018686 -34.473003
H -38.679412 41.624330 -36.855906
12
Step 29
C -36.644120 41.817878 -36.162251
C -36.028105 41.917003 -34.837297
C -36.994956 41.608336 -33.631346
C -38.310862 41.678299 -33.587415
C -38.795239 41.776397 -34.959456
C -38.059161 41.681116 -35.973805
H -35.669277 42.135650 -36.836032
H -34.789171 42.138871 -34.969643
H -35.733593 41.154708 -32.505457
H -39.041582 41.067904 -32.685429
H -39.536147 42.040180 -34.453957
H -38.682048 41.618435 -36.849033
12
Step 30
C -36.641566 41.813250 -36.167162
C -36.026701 41.916688 -34.839392
C -37.001190 41.604640 -33.632066
C -38.315072 41.683312 -33.584361
C -38.793573 41.783869 -34.960757
C -38.057663 41.678085 -35.970031
H -35.653949 42.136021 -36.832781
H -34.783286 42.141068 -34.977805
H -35.715933 41.136604 -32.502390
H -39.050307 41.058143 -32.683400
H -39.524056 42.061656 -34.434774
H -38.684687 41.612544 -36.842192
12
Step 31
C -36.639007 41.808624 -36.172065
C -36.025299 41.916371 -34.841489
C -37.007410 41.600946 -33.632785
C -38.319294 41.688324 -33.581316
C -38.791905 41.791339 -34.962045
C -38.056160 41.675054 -35.966272
H -35.638707 42.136367 -36.829533
H -34.777489 42.143244 -34.985925
H -35.698351 41.118518 -32.499366
H -39.058975 41.048429 -32.681415
H -39.511941 42.083114 -34.415472
H -38.687329 41.606658 -36.835385
12
Step 32
C -36.636441 41.804001 -36.176959
C -36.023897 41.916052 -34.843587
C -37.013619 41.597254 -33.633505
C -38.323527 41.693334 -33.578279
C -38.790234 41.798808 -34.963320
C -38.054651 41.672024 -35.962528
H -35.623552 42.136686 -36.826287
H -34.771780 42.145399 -34.994003
H -35.680827 41.100447 -32.496372
H -39.067590 41.038760 -32.679471
H -39.499814 42.104557 -34.396070
H -38.689973 41.600775 -36.828612
12
Step 33
C -36.633869 41.799381 -36.181844
C -36.022497 41.915731 -34.845685
C -37.019816 41.593565 -33.634225
C -38.327769 41.698341 -33.575249
C -38.788563 41.806275 -34.964582
C -38.053136 41.668994 -35.958801
H -35.608488 42.136979 -36.823046
H -34.766159 42.147532 -35.002036
H -35.663342 41.082384 -32.493397
H -39.076159 41.029133 -32.677562
H -39.487687 42.125989 -34.376585
H -38.692619 41.594897 -36.821878
12
Step 34
C -36.631291 41.794763 -36.186721
C -36.021099 41.915408 -34.847783
C -37.026001 41.589880 -33.634947
C -38.332018 41.703347 -33.572226
C -38.786891 41.813742 -34.965829
C -38.051614 41.665965 -35.955091
H -35.593515 42.137244 -36.819811
H -34.760627 42.149643 -35.010023
H -35.645881 41.064329 -32.490435
H -39.084684 41.019546 -32.675683
H -39.475571 42.147412 -34.357032
H -38.695265 41.589024 -36.815184
12
Step 35
C -36.628707 41.790147 -36.191588
C -36.019701 41.915082 -34.849881
C -37.032175 41.586198 -33.635671
C -38.336275 41.708350 -33.569209
C -38.785221 41.821208 -34.967061
C -38.050087 41.662935 -35.951397
H -35.578637 42.137481 -36.816584
H -34.755185 42.151732 -35.017959
H -35.628435 41.046278 -32.487482
H -39.093170 41.009996 -32.673828
H -39.463472 42.168828 -34.337426
H -38.697910 41.583155 -36.808533
12
Step 36
C -36.626116 41.785534 -36.196447
C -36.018306 41.914754 -34.851979
C -37.038337 41.582519 -33.636398
C -38.340538 41.713351 -33.566198
C -38.783553 41.828674 -34.968279
C -38.048552 41.659906 -35.947721
H -35.563855 42.137690 -36.813366
H -34.749834 42.153799 -35.025843
H -35.610997 41.028230 -32.484534
H -39.101617 41.000480 -32.671994
H -39.451392 42.190237 -34.317775
H -38.700554 41.577291 -36.801927
12
Step 37
C -36.623519 41.780923 -36.201296
C -36.016912 41.914423 -34.854075
C -37.044487 41.578844 -33.637128
C -38.344808 41.718349 -33.563193
C -38.781887 41.836140 -34.969481
C -38.047011 41.656876 -35.944062
H -35.549172 42.137870 -36.810162
H -34.744574 42.155842 -35.033671
H -35.593561 41.010185 -32.481591
H -39.110028 40.990997 -32.670176
H -39.439327 42.211637 -34.298088
H -38.703196 41.571431 -36.795369
12
Step 38
C -36.620915 41.776315 -36.206136
C -36.015521 41.914090 -34.856170
C -37.050625 41.575173 -33.637862
C -38.349083 41.723346 -33.560193
C -38.780225 41.843607 -34.970667
C -38.045464 41.653847 -35.940422
H -35.534589 42.138022 -36.806974
H -34.739405 42.157862 -35.041438
H -35.576123 40.992142 -32.478651
H -39.118402 40.981545 -32.668373
H -39.427270 42.233024 -34.278371
H -38.705836 41.565575 -36.788859
12
Step 39
C -36.618306 41.771710 -36.210966
C -36.014132 41.913753 -34.858263
C -37.056750 41.571506 -33.638601
C -38.353366 41.728342 -33.557200
C -38.778567 41.851075 -34.971836
C -38.043909 41.650817 -35.936800
H -35.520108 42.138144 -36.803806
H -34.734327 42.159858 -35.049141
H -35.558683 40.974101 -32.475715
H -39.126738 40.972125 -32.666582
H -39.415212 42.254392 -34.258627
H -38.708473 41.559723 -36.782399
12
Step 40
C -36.615690 41.767107 -36.215787
C -36.012745 41.913412 -34.860354
C -37.062863 41.567843 -33.639343
C -38.357655 41.733336 -33.554212
C -38.776913 41.858545 -34.972988
C -38.042348 41.647787 -35.933196
H -35.505728 42.138238 -36.800663
H -34.729340 42.161830 -35.056776
H -35.541237 40.956061 -32.472782
H -39.135035 40.962736 -32.664803
H -39.403140 42.275732 -34.238862
H -38.711108 41.553874 -36.775992
12
Step 41
C -36.613068 41.762507 -36.220598
C -36.011361 41.913068 -34.862443
C -37.068962 41.564185 -33.640090
C -38.361953 41.738330 -33.551231
C -38.775265 41.866018 -34.974121
C -38.040780 41.644757 -35.929612
H -35.491449 42.138303 -36.797548
H -34.724446 42.163778 -35.064339
H -35.523785 40.938022 -32.469854
H -39.143288 40.953381 -32.663037
H -39.391039 42.297037 -34.219081
H -38.713742 41.548028 -36.769638
12
Step 42
C -36.610439 41.757910 -36.225398
C -36.009981 41.912720 -34.864528
C -37.075048 41.560531 -33.640842
C -38.366260 41.743322 -33.548255
C -38.773623 41.873493 -34.975236
C -38.039205 41.641726 -35.926047
H -35.477271 42.138340 -36.794466
H -34.719644 42.165701 -35.071825
H -35.506326 40.919983 -32.466930
H -39.151495 40.944061 -32.661286
H -39.378897 42.318294 -34.199290
H -38.716375 41.542184 -36.763336
12
Step 43
C -36.607805 41.753315 -36.230189
C -36.008603 41.912368 -34.866610
C -37.081121 41.556883 -33.641600
C -38.370576 41.748314 -33.545286
C -38.771988 41.880972 -34.976330
C -38.037624 41.638694 -35.922501
H -35.463194 42.138349 -36.791420
H -34.714935 42.167598 -35.079230
H -35.488858 40.901946 -32.464010
H -39.159651 40.934780 -32.659554
H -39.366700 42.339495 -34.179495
H -38.719010 41.536341 -36.757088
12
Step 44
C -36.605165 41.748723 -36.234970
C -36.007230 41.912012 -34.868687
C -37.087179 41.553239 -33.642364
C -38.374903 41.753306 -33.542323
C -38.770361 41.888455 -34.977404
C -38.036035 41.635662 -35.918975
H -35.449215 42.138330 -36.788416
H -34.710320 42.169470 -35.086551
H -35.471382 40.883908 -32.461097
H -39.167751 40.925545 -32.657845
H -39.354437 42.360629 -34.159704
H -38.721645 41.530498 -36.750894
12
Step 45
C -36.602519 41.744134 -36.239741
C -36.005860 41.911651 -34.870760
C -37.093224 41.549600 -33.643134
C -38.379240 41.758296 -33.539365
C -38.768741 41.895942 -34.978455
C -38.034440 41.632629 -35.915469
H -35.435334 42.138283 -36.785456
H -34.705801 42.171316 -35.093783
H -35.453897 40.865872 -32.458190
H -39.175791 40.916359 -32.656167
H -39.342098 42.381686 -34.139928
H -38.724284 41.524656 -36.744752
12
Step 46
C -36.599867 41.739548 -36.244502
C -36.004494 41.911285 -34.872827
C -37.099253 41.545967 -33.643911
C -38.383588 41.763285 -33.536413
C -38.767131 41.903436 -34.979483
C -38.032838 41.629595 -35.911983
H -35.421551 42.138209 -36.782544
H -34.701378 42.173135 -35.100923
H -35.436402 40.847837 -32.455291
H -39.183763 40.907231 -32.654525
H -39.329678 42.402656 -34.120174
H -38.726926 41.518813 -36.738663
12
Step 47
C -36.597210 41.734965 -36.249252
C -36.003133 41.910914 -34.874889
C -37.105267 41.542340 -33.644695
C -38.387948 41.768273 -33.533465
C -38.765529 41.910935 -34.980488
C -38.031229 41.626560 -35.908518
H -35.407864 42.138107 -36.779683
H -34.697054 42.174928 -35.107966
H -35.418898 40.829804 -32.452403
H -39.191664 40.898168 -32.652927
H -39.317171 42.423533 -34.100455
H -38.729572 41.512967 -36.732627
12
Step 48
C -36.594547 41.730384 -36.253992
C -36.001777 41.910538 -34.876944
C -37.111266 41.538719 -33.645487
C -38.392319 41.773259 -33.530521
C -38.763938 41.918441 -34.981467
C -38.029613 41.623524 -35.905073
H -35.394273 42.137978 -36.776877
H -34.692830 42.176692 -35.114909
H -35.401386 40.811774 -32.449528
H -39.199486 40.889178 -32.651381
H -39.304574 42.444308 -34.080779
H -38.732222 41.507120 -36.726644
12
Step 49
C -36.591878 41.725806 -36.258722
C -36.000425 41.910156 -34.878992
C -37.117249 41.535104 -33.646286
C -38.396702 41.778242 -33.527580
C -38.762356 41.925954 -34.982420
C -38.027990 41.620487 -35.901650
H -35.380778 42.137821 -36.774126
H -34.688708 42.178427 -35.121749
H -35.383865 40.793749 -32.446668
H -39.207224 40.880269 -32.649896
H -39.291885 42.464975 -34.061156
H -38.734876 41.501268 -36.720712
12
Step 50
C -36.589204 41.721231 -36.263443
C -35.999079 41.909768 -34.881032
C -37.123215 41.531496 -33.647094
C -38.401097 41.783222 -33.524642
C -38.760785 41.933475 -34.983345
C -38.026360 41.617449 -35.898247
H -35.367381 42.137636 -36.771431
H -34.684691 42.180132 -35.128483
H -35.366336 40.775729 -32.443827
H -39.214872 40.871451 -32.648479
H -39.279106 42.485530 -34.041594
H -38.737534 41.495413 -36.714831
12
Step 51
C -36.586524 41.716659 -36.268153
C -35.997738 41.909374 -34.883064
C -37.129165 41.527894 -33.647910
C -38.405504 41.788197 -33.521707
C -38.759225 41.941004 -34.984244
C -38.024723 41.614409 -35.894866
H -35.354080 42.137422 -36.768791
H -34.680783 42.181806 -35.135108
H -35.348798 40.757718 -32.441007
H -39.222425 40.862732 -32.647140
H -39.266239 42.505970 -34.022100
H -38.740195 41.489552 -36.709001
12
Step 52
C -36.583838 41.712091 -36.272854
C -35.996403 41.908974 -34.885087
C -37.135097 41.524300 -33.648735
C -38.409922 41.793167 -33.518772
C -38.757676 41.948541 -34.985114
C -38.023079 41.611368 -35.891506
H -35.340878 42.137179 -36.766203
H -34.676986 42.183447 -35.141626
H -35.331252 40.739716 -32.438214
H -39.229877 40.854123 -32.645886
H -39.253288 42.526294 -34.002677
H -38.742857 41.483686 -36.703221
12
Step 53
C -36.581146 41.707525 -36.277545
C -35.995074 41.908568 -34.887101
C -37.141013 41.520712 -33.649569
C -38.414352 41.798131 -33.515838
C -38.756138 41.956087 -34.985956
C -38.021428 41.608324 -35.888169
H -35.327775 42.136905 -36.763664
H -34.673304 42.185054 -35.148036
H -35.313699 40.721726 -32.435450
H -39.237223 40.845631 -32.644725
H -39.240260 42.546501 -33.983326
H -38.745517 41.477813 -36.697489
12
Step 54
C -36.578449 41.702963 -36.282227
C -35.993751 41.908154 -34.889105
C -37.146910 41.517132 -33.650412
C -38.418794 41.803089 -33.512905
C -38.754611 41.963642 -34.986770
C -38.019770 41.605279 -35.884853
H -35.314775 42.136598 -36.761166
H -34.669742 42.186625 -35.154342
H -35.296139 40.703750 -32.432719
H -39.244458 40.837265 -32.643664
H -39.227163 42.566596 -33.964042
H -38.748174 41.471932 -36.691804
12
Step 55
C -36.575744 41.698404 -36.286900
C -35.992434 41.907734 -34.891098
C -37.152790 41.513559 -33.651264
C -38.423246 41.808040 -33.509972
C -38.753094 41.971205 -34.987557
C -38.018105 41.602232 -35.881559
H -35.301878 42.136257 -36.758701
H -34.666304 42.188158 -35.160549
H -35.278573 40.685791 -32.430026
H -39.251580 40.829033 -32.642710
H -39.214006 42.586585 -33.944817
H -38.750825 41.466044 -36.686166
12
Step 56
C -36.573033 41.693849 -36.291563
C -35.991123 41.907307 -34.893082
C -37.158651 41.509994 -33.652126
C -38.427710 41.812982 -33.507038
C -38.751587 41.978776 -34.988318
C -38.016434 41.599182 -35.878288
H -35.289088 42.135879 -36.756257
H -34.662996 42.189654 -35.166664
H -35.261002 40.667850 -32.427373
H -39.258584 40.820943 -32.641867
H -39.200803 42.606477 -33.925638
H -38.753465 41.460146 -36.680574
12
Step 57
C -36.570315 41.689298 -36.296217
C -35.989819 41.906873 -34.895054
C -37.164493 41.506436 -33.652998
C -38.432184 41.817916 -33.504103
C -38.750089 41.986354 -34.989054
C -38.014756 41.596130 -35.875038
H -35.276407 42.135463 -36.753822
H -34.659824 42.191109 -35.172699
H -35.243427 40.649929 -32.424763
H -39.265468 40.813001 -32.641142
H -39.187565 42.626284 -33.906488
H -38.756092 41.454237 -36.675027
12
Step 58
C -36.567588 41.684751 -36.300863
C -35.988521 41.906432 -34.897016
C -37.170317 41.502885 -33.653879
C -38.436669 41.822841 -33.501168
C -38.748599 41.993939 -34.989767
C -38.013072 41.593075 -35.871812
H -35.263841 42.135006 -36.751378
H -34.656792 42.192524 -35.178664
H -35.225852 40.632031 -32.422200
H -39.272229 40.805213 -32.640537
H -39.174306 42.646019 -33.887347
H -38.758701 41.448317 -36.669524
12
Step 59
C -36.564853 41.680208 -36.305499
C -35.987229 41.905984 -34.898967
C -37.176123 41.499342 -33.654768
C -38.441163 41.827756 -33.498232
C -38.747117 42.001529 -34.990459
C -38.011382 41.590018 -35.868607
H -35.251392 42.134505 -36.748908
H -34.653910 42.193897 -35.184577
H -35.208278 40.614156 -32.419686
H -39.278867 40.797584 -32.640055
H -39.161040 42.665698 -33.868192
H -38.761289 41.442384 -36.664064
12
Step 60
C -36.562110 41.675670 -36.310127
C -35.985943 41.905529 -34.900906
C -37.181909 41.495806 -33.655667
C -38.445667 41.832661 -33.495295
C -38.745642 42.009124 -34.991131
C -38.009687 41.586957 -35.865425
H -35.239065 42.133957 -36.746389
H -34.651182 42.195228 -35.190455
H -35.190708 40.596308 -32.417223
H -39.285381 40.790116 -32.639699
H -39.147779 42.685336 -33.849000
H -38.763851 41.436436 -36.658646
12
Step 61
C -36.559357 41.671137 -36.314746
C -35.984662 41.905066 -34.902835
C -37.187676 41.492278 -33.656575
C -38.450179 41.837555 -33.492358
C -38.744173 42.016723 -34.991786
C -38.007985 41.583894 -35.862266
H -35.226866 42.133358 -36.743799
H -34.648619 42.196515 -35.196320
H -35.173144 40.578485 -32.414812
H -39.291772 40.782813 -32.639468
H -39.134534 42.704950 -33.829748
H -38.766383 41.430473 -36.653269
12
Step 62
C -36.556594 41.666610 -36.319356
C -35.983388 41.904597 -34.904754
C -37.193425 41.488756 -33.657491
C -38.454699 41.842438 -33.489421
C -38.742709 42.024324 -34.992425
C -38.006279 41.580828 -35.859129
H -35.214799 42.132705 -36.741110
H -34.646227 42.197759 -35.202198
H -35.155590 40.560688 -32.412450
H -39.298041 40.775674 -32.639362
H -39.121313 42.724553 -33.810420
H -38.768882 41.424493 -36.647930
12
Step 63
C -36.553820 41.662088 -36.323957
C -35.982118 41.904120 -34.906662
C -37.199155 41.485241 -33.658414
C -38.459226 41.847310 -33.486485
C -38.741250 42.031927 -34.993049
C -38.004567 41.577760 -35.856015
H -35.202870 42.131995 -36.738294
H -34.644017 42.198960 -35.208114
H -35.138047 40.542916 -32.410136
H -39.304191 40.768699 -32.639379
H -39.108123 42.744155 -33.791002
H -38.771344 41.418495 -36.642629
12
Step 64
C -36.551034 41.657572 -36.328550
C -35.980854 41.903637 -34.908560
C -37.204867 41.481734 -33.659346
C -38.463759 41.852172 -33.483551
C -38.739795 42.039532 -34.993659
C -38.002850 41.574688 -35.852923
H -35.191083 42.131223 -36.735321
H -34.641996 42.200119 -35.214100
H -35.120518 40.525168 -32.407867
H -39.310226 40.761884 -32.639515
H -39.094964 42.763759 -33.771490
H -38.773764 41.412479 -36.637364
12
Step 65
C -36.548237 41.653063 -36.333135
C -35.979594 41.903147 -34.910448
C -37.210562 41.478233 -33.660284
C -38.468298 41.857023 -33.480618
C -38.738346 42.047138 -34.994255
C -38.001128 41.571614 -35.849853
H -35.179447 42.130385 -36.732162
H -34.640174 42.201234 -35.220184
H -35.103004 40.507442 -32.405638
H -39.316148 40.755227 -32.639767
H -39.081836 42.783367 -33.751889
H -38.776140 41.406443 -36.632131
12
Step 66
C -36.545427 41.648561 -36.337710
C -35.978338 41.902651 -34.912326
C -37.216239 41.474739 -33.661230
C -38.472841 41.861864 -33.477688
C -38.736900 42.054747 -34.994836
C -37.999402 41.568538 -35.846806
H -35.167969 42.129478 -36.728789
H -34.638560 42.202308 -35.226393
H -35.085505 40.489733 -32.403445
H -39.321964 40.748723 -32.640131
H -39.068733 42.802969 -33.732212
H -38.778468 41.400390 -36.626924
12
Step 67
C -36.542604 41.644066 -36.342278
C -35.977086 41.902149 -34.914196
C -37.221900 41.471252 -33.662182
C -38.477388 41.866694 -33.474761
C -38.735460 42.062359 -34.995402
C -37.997672 41.565459 -35.843781
H -35.156658 42.128496 -36.725178
H -34.637160 42.203340 -35.232753
H -35.068022 40.472041 -32.401281
H -39.327677 40.742365 -32.640601
H -39.055646 42.822552 -33.712483
H -38.780746 41.394320 -36.621738
12
Step 68
C -36.539767 41.639579 -36.346837
C -35.975837 41.901641 -34.916056
C -37.227544 41.467772 -33.663140
C -38.481938 41.871516 -33.471838
C -38.734024 42.069974 -34.995950
C -37.995937 41.562378 -35.840778
H -35.145524 42.127436 -36.721307
H -34.635981 42.204331 -35.239283
H -35.050557 40.454362 -32.399142
H -39.333293 40.736148 -32.641173
H -39.042567 42.842099 -33.692733
H -38.782970 41.388236 -36.616565
12
Step 69
C -36.536916 41.635100 -36.351388
C -35.974592 41.901128 -34.917907
C -37.233172 41.464298 -33.664104
C -38.486490 41.876329 -33.468921
C -38.732595 42.077594 -34.996480
C -37.994199 41.559296 -35.837796
H -35.134579 42.126294 -36.717162
H -34.635027 42.205282 -35.245997
H -35.033111 40.436694 -32.397024
H -39.338818 40.730065 -32.641841
H -39.029485 42.861588 -33.672994
H -38.785138 41.382140 -36.611397
12
Step 70
C -36.534050 41.630630 -36.355930
C -35.973349 41.900609 -34.919750
C -37.238785 41.460832 -33.665074
C -38.491043 41.881135 -33.466008
C -38.731171 42.085220 -34.996988
C -37.992456 41.556212 -35.834836
H -35.123835 42.125065 -36.712736
H -34.634301 42.206192 -35.252904
H -35.015684 40.419035 -32.394923
H -39.344257 40.724108 -32.642598
H -39.016389 42.880997 -33.653297
H -38.787247 41.376036 -36.606227
12
Step 71
C -36.531169 41.626169 -36.360465
C -35.972109 41.900086 -34.921584
C -37.244382 41.457371 -33.666048
C -38.495597 41.885934 -33.463102
C -38.729753 42.092853 -34.997475
C -37.990710 41.553127 -35.831897
H -35.113305 42.123747 -36.708027
H -34.633804 42.207062 -35.260003
H -34.998278 40.401384 -32.392836
H -39.349617 40.718269 -32.643440
H -39.003272 42.900308 -33.633670
H -38.789297 41.369926 -36.601049
12
Step 72
C -36.528272 41.621717 -36.364993
C -35.970870 41.899557 -34.923411
C -37.249963 41.453918 -33.667027
C -38.500151 41.890727 -33.460203
C -38.728342 42.100492 -34.997938
C -37.988960 41.550041 -35.828979
H -35.103000 42.122335 -36.703040
H -34.633534 42.207891 -35.267291
H -34.980896 40.383742 -32.390762
H -39.354904 40.712540 -32.644360
H -38.990127 42.919506 -33.614134
H -38.791285 41.363812 -36.595857
12
Step 73
C -36.525358 41.617274 -36.369513
C -35.969633 41.899024 -34.925229
C -37.255530 41.450470 -33.668010
C -38.504705 41.895516 -33.457312
C -38.726938 42.108139 -34.998377
C -37.987206 41.546953 -35.826082
H -35.092933 42.120827 -36.697785
H -34.633487 42.208680 -35.274756
H -34.963540 40.366107 -32.388701
H -39.360122 40.706915 -32.645354
H -38.976952 42.938579 -33.594701
H -38.793212 41.357696 -36.590647
12
Step 74
C -36.522429 41.612841 -36.374025
C -35.968397 41.898487 -34.927040
C -37.261081 41.447028 -33.668996
C -38.509257 41.900301 -33.454430
C -38.725540 42.115794 -34.998792
C -37.985449 41.543864 -35.823207
H -35.083115 42.119220 -36.692278
H -34.633660 42.209429 -35.282384
H -34.946211 40.348483 -32.386654
H -39.365279 40.701386 -32.646414
H -38.963744 42.957521 -33.575375
H -38.795076 41.351579 -36.585418
12
Step 75
C -36.519483 41.608418 -36.378531
C -35.967161 41.897946 -34.928844
C -37.266618 41.443591 -33.669983
C -38.513809 41.905084 -33.451556
C -38.724148 42.123456 -34.999181
C -37.983688 41.540774 -35.820353
H -35.073554 42.117513 -36.686535
H -34.634046 42.210136 -35.290158
H -34.928914 40.330869 -32.384620
H -39.370380 40.695944 -32.647537
H -38.950503 42.976328 -33.556156
H -38.796878 41.345462 -36.580167
12
Step 76
C -36.516520 41.604004 -36.383029
C -35.965925 41.897402 -34.930641
C -37.272140 41.440159 -33.670971
C -38.518359 41.909866 -33.448693
C -38.722763 42.131125 -34.999547
C -37.981923 41.537683 -35.817521
H -35.064256 42.115705 -36.680572
H -34.634639 42.210803 -35.298064
H -34.911649 40.313268 -32.382603
H -39.375430 40.690583 -32.648717
H -38.937231 42.995000 -33.537039
H -38.798617 41.339345 -36.574896
12
Step 77
C -36.513541 41.599600 -36.387520
C -35.964689 41.896854 -34.932433
C -37.277647 41.436732 -33.671960
C -38.522908 41.914647 -33.445841
C -38.721384 42.138800 -34.999887
C -37.980154 41.534590 -35.814710
H -35.055224 42.113795 -36.674405
H -34.635432 42.211429 -35.306088
H -34.894419 40.295681 -32.380603
H -39.380435 40.685297 -32.649948
H -38.923930 43.013538 -33.518018
H -38.800294 41.333228 -36.569607
12
Step 78
C -36.510545 41.595205 -36.392003
C -35.963452 41.896304 -34.934218
C -37.283141 41.433309 -33.672948
C -38.527454 41.919429 -33.443002
C -38.720011 42.146482 -35.000203
C -37.978381 41.531496 -35.811922
H -35.046461 42.111784 -36.668046
H -34.636418 42.212014 -35.314220
H -34.877225 40.278111 -32.378623
H -39.385401 40.680076 -32.651225
H -38.910602 43.031944 -33.499084
H -38.801910 41.327109 -36.564300
12
Step 79
C -36.507534 41.590820 -36.396480
C -35.962215 41.895750 -34.935998
C -37.288621 41.429890 -33.673934
C -38.531997 41.924213 -33.440175
C -38.718644 42.154170 -35.000494
C -37.976603 41.528400 -35.809156
H -35.037965 42.109672 -36.661505
H -34.637592 42.212556 -35.322454
H -34.860067 40.260557 -32.376662
H -39.390333 40.674915 -32.652542
H -38.897250 43.050221 -33.480229
H -38.803466 41.320987 -36.558982
12
Step 80
C -36.504507 41.586444 -36.400949
C -35.960976 41.895194 -34.937773
C -37.294088 41.426474 -33.674917
C -38.536538 41.929000 -33.437363
C -38.717283 42.161863 -35.000760
C -37.974822 41.525302 -35.806412
H -35.029731 42.107462 -36.654789
H -34.638948 42.213057 -35.330785
H -34.842943 40.243022 -32.374722
H -39.395239 40.669805 -32.653894
H -38.883877 43.068372 -33.461444
H -38.804963 41.314861 -36.553655
12
Step 81
C -36.501465 41.582078 -36.405410
C -35.959736 41.894636 -34.939545
C -37.299544 41.423061 -33.675898
C -38.541074 41.933791 -33.434566
C -38.715927 42.169562 -35.001001
C -37.973037 41.522202 -35.803690
H -35.021755 42.105155 -36.647904
H -34.640480 42.213515 -35.339212
H -34.825855 40.225504 -32.372803
H -39.400123 40.664737 -32.655275
H -38.870486 43.086402 -33.442718
H -38.806403 41.308727 -36.548324
12
Step 82
C -36.498408 41.577721 -36.409863
C -35.958494 41.894076 -34.941312
C -37.304987 41.419651 -33.676873
C -38.545607 41.938586 -33.431785
C -38.714576 42.177265 -35.001217
C -37.971247 41.519100 -35.800991
H -35.014029 42.102756 -36.640854
H -34.642183 42.213930 -35.347735
H -34.808798 40.208004 -32.370904
H -39.404993 40.659704 -32.656680
H -38.857081 43.104316 -33.424039
H -38.807786 41.302584 -36.542994
12
Step 83
C -36.495338 41.573373 -36.414308
C -35.957250 41.893515 -34.943077
C -37.310421 41.416243 -33.677844
C -38.550135 41.943388 -33.429020
C -38.713230 42.184972 -35.001410
C -37.969453 41.515995 -35.798314
H -35.006542 42.100267 -36.633648
H -34.644052 42.214303 -35.356350
H -34.791772 40.190522 -32.369025
H -39.409853 40.654699 -32.658102
H -38.843663 43.122120 -33.405397
H -38.809115 41.296430 -36.537669
12
Step 84
C -36.492255 41.569034 -36.418744
C -35.956003 41.892951 -34.944839
C -37.315844 41.412838 -33.678809
C -38.554658 41.948196 -33.426273
C -38.711888 42.192683 -35.001579
C -37.967656 41.512889 -35.795660
H -34.999288 42.097692 -36.626296
H -34.646079 42.214633 -35.365050
H -34.774773 40.173057 -32.367164
H -39.414709 40.649713 -32.659537
H -38.830237 43.139822 -33.386778
H -38.810391 41.290263 -36.532353
12
Step 85
C -36.489159 41.564703 -36.423172
C -35.954755 41.892387 -34.946599
C -37.321259 41.409434 -33.679768
C -38.559175 41.953011 -33.423543
C -38.710550 42.200398 -35.001726
C -37.965854 41.509780 -35.793027
H -34.992260 42.095033 -36.618813
H -34.648255 42.214921 -35.373826
H -34.757798 40.155607 -32.365321
H -39.419566 40.644742 -32.660980
H -38.816805 43.157427 -33.368172
H -38.811615 41.284079 -36.527051
12
Step 86
C -36.486052 41.560380 -36.427592
C -35.953504 41.891822 -34.948357
C -37.326666 41.406033 -33.680719
C -38.563686 41.957833 -33.420832
C -38.709215 42.208115 -35.001851
C -37.964050 41.506670 -35.790417
H -34.985450 42.092293 -36.611211
H -34.650572 42.215170 -35.382672
H -34.740843 40.138171 -32.363493
H -39.424428 40.639777 -32.662428
H -38.803370 43.174943 -33.349569
H -38.812789 41.277877 -36.521766
12
Step 87
C -36.482933 41.556066 -36.432003
C -35.952251 41.891256 -34.950114
C -37.332066 41.402633 -33.681663
C -38.568190 41.962664 -33.418139
C -38.707884 42.215834 -35.001955
C -37.962242 41.503557 -35.787828
H -34.978852 42.089473 -36.603502
H -34.653023 42.215381 -35.391579
H -34.723906 40.120748 -32.361679
H -39.429299 40.634814 -32.663875
H -38.789935 43.192374 -33.330959
H -38.813914 41.271655 -36.516502
12
Step 88
C -36.479804 41.551759 -36.436405
C -35.950996 41.890689 -34.951869
C -37.337461 41.399235 -33.682599
C -38.572686 41.967504 -33.415465
C -38.706556 42.223555 -35.002039
C -37.960432 41.500443 -35.785260
H -34.972457 42.086578 -36.595696
H -34.655600 42.215555 -35.400544
H -34.706982 40.103334 -32.359877
H -39.434183 40.629846 -32.665318
H -38.776502 43.209728 -33.312336
H -38.814992 41.265409 -36.511263
12
Step 89
C -36.476666 41.547460 -36.440799
C -35.949738 41.890122 -34.953624
C -37.342850 41.395838 -33.683526
C -38.577175 41.972352 -33.412810
C -38.705230 42.231277 -35.002103
C -37.958619 41.497327 -35.782714
H -34.966258 42.083608 -36.587803
H -34.658295 42.215694 -35.409561
H -34.690068 40.085930 -32.358085
H -39.439084 40.624867 -32.666754
H -38.763072 43.227012 -33.293691
H -38.816024 41.259138 -36.506053
12
Step 90
C -36.473518 41.543169 -36.445185
C -35.948479 41.889555 -34.955377
C -37.348235 41.392443 -33.684443
C -38.581655 41.977209 -33.410174
C -38.703906 42.239000 -35.002149
C -37.956804 41.494210 -35.780187
H -34.960248 42.080567 -36.579830
H -34.661103 42.215799 -35.418629
H -34.673162 40.068532 -32.356301
H -39.444005 40.619872 -32.668178
H -38.749649 43.244232 -33.275019
H -38.817012 41.252839 -36.500873
12
Step 91
C -36.470361 41.538884 -36.449562
C -35.947217 41.888987 -34.957129
C -37.353617 41.389049 -33.685351
C -38.586125 41.982075 -33.407557
C -38.702583 42.246724 -35.002177
C -37.954987 41.491091 -35.777682
H -34.954419 42.077458 -36.571784
H -34.664017 42.215873 -35.427746
H -34.656261 40.051140 -32.354524
H -39.448949 40.614855 -32.669589
H -38.736234 43.261397 -33.256314
H -38.817956 41.246512 -36.495726
12
Step 92
C -36.467195 41.534607 -36.453931
C -35.945953 41.888419 -34.958879
C -37.358995 41.385657 -33.686249
C -38.590587 41.986950 -33.404960
C -38.701263 42.254448 -35.002188
C -37.953170 41.487972 -35.775195
H -34.948764 42.074282 -36.563674
H -34.667032 42.215915 -35.436909
H -34.639363 40.033754 -32.352754
H -39.453918 40.609812 -32.670984
H -38.722828 43.278515 -33.237573
H -38.818858 41.240155 -36.490613
12
Step 93
C -36.464022 41.530336 -36.458292
C -35.944687 41.887851 -34.960628
C -37.364372 41.382266 -33.687137
C -38.595038 41.991834 -33.402382
C -38.699943 42.262172 -35.002183
C -37.951351 41.484852 -35.772728
H -34.943277 42.071041 -36.555508
H -34.670144 42.215929 -35.446113
H -34.622468 40.016371 -32.350989
H -39.458914 40.604738 -32.672360
H -38.709433 43.295593 -33.218792
H -38.819719 41.233766 -36.485535
12
Step 94
C -36.460841 41.526072 -36.462646
C -35.943420 41.887284 -34.962376
C -37.369746 41.378877 -33.688014
C -38.599478 41.996726 -33.399823
C -38.698623 42.269896 -35.002162
C -37.949531 41.481731 -35.770280
H -34.937954 42.067738 -36.547296
H -34.673347 42.215914 -35.455352
H -34.605574 39.998992 -32.349228
H -39.463941 40.599628 -32.673716
H -38.696050 43.312641 -33.199969
H -38.820539 41.227346 -36.480493
12
Step 95
C -36.457653 41.521814 -36.466992
C -35.942150 41.886716 -34.964122
C -37.375120 41.375489 -33.688880
C -38.603908 42.001625 -33.397283
C -38.697304 42.277620 -35.002127
C -37.947711 41.478610 -35.767851
H -34.932791 42.064373 -36.539049
H -34.676638 42.215873 -35.464617
H -34.588683 39.981617 -32.347473
H -39.468998 40.594479 -32.675050
H -38.682680 43.329668 -33.181104
H -38.821321 41.220893 -36.475485
12
Step 96
C -36.454458 41.517562 -36.471332
C -35.940879 41.886149 -34.965866
C -37.380492 41.372102 -33.689735
C -38.608327 42.006532 -33.394761
C -38.695985 42.285343 -35.002078
C -37.945892 41.475489 -35.765439
H -34.927786 42.060948 -36.530778
H -34.680014 42.215806 -35.473898
H -34.571793 39.964245 -32.345723
H -39.474088 40.589289 -32.676361
H -38.669324 43.346683 -33.162196
H -38.822063 41.214406 -36.470512
12
Step 97
C -36.451257 41.513316 -36.475664
C -35.939605 41.885583 -34.967608
C -37.385864 41.368716 -33.690578
C -38.612734 42.011445 -33.392259
C -38.694666 42.293065 -35.002015
C -37.944072 41.472369 -35.763045
H -34.922936 42.057462 -36.522493
H -34.683473 42.215714 -35.483187
H -34.554906 39.946878 -32.343978
H -39.479209 40.584056 -32.677648
H -38.655984 43.363694 -33.143244
H -38.822767 41.207886 -36.465574
12
Step 98
C -36.448049 41.509075 -36.479991
C -35.938328 41.885017 -34.969349
C -37.391235 41.365332 -33.691411
C -38.617130 42.016364 -33.389775
C -38.693346 42.300786 -35.001939
C -37.942253 41.469249 -35.760667
H -34.918238 42.053917 -36.514204
H -34.687014 42.215598 -35.492473
H -34.538022 39.929515 -32.342239
H -39.484363 40.578778 -32.678913
H -38.642659 43.380707 -33.124250
H -38.823434 41.201332 -36.460668
12
Step 99
C -36.444835 41.504840 -36.484311
C -35.937049 41.884453 -34.971088
C -37.396606 41.361948 -33.692232
C -38.621515 42.021288 -33.387309
C -38.692024 42.308506 -35.001851
C -37.940435 41.466131 -35.758305
H -34.913693 42.050312 -36.505925
H -34.690636 42.215459 -35.501742
H -34.521142 39.912156 -32.340505
H -39.489548 40.573457 -32.680154
H -38.629349 43.397726 -33.105213
H -38.824063 41.194744 -36.455795
12
Step 100
C -36.441615 41.500610 -36.488627
C -35.935766 41.883889 -34.972825
C -37.401978 41.358566 -33.693043
C -38.625887 42.026216 -33.384860
C -38.690702 42.316225 -35.001751
C -37.938619 41.463013 -35.755959
H -34.909301 42.046646 -36.497676
H -34.694337 42.215300 -35.510972
H -34.504266 39.894803 -32.338778
H -39.494764 40.568091 -32.681373
H -38.616054 43.414753 -33.086137
H -38.824654 41.188122 -36.450951
12
Step 101
C -36.438390 41.496385 -36.492937
C -35.934479 41.883327 -34.974559
C -37.407350 41.355185 -33.693842
C -38.630249 42.031150 -33.382429
C -38.689377 42.323943 -35.001639
C -37.936804 41.459897 -35.753628
H -34.905066 42.042914 -36.489487
H -34.698113 42.215124 -35.520133
H -34.487396 39.877455 -32.337057
H -39.500010 40.562682 -32.682570
H -38.602774 43.431785 -33.067024
H -38.825207 41.181466 -36.446136
12
Step 102
C -36.435159 41.492164 -36.497242
C -35.933189 41.882767 -34.976292
C -37.412724 41.351805 -33.694630
C -38.634598 42.036088 -33.380015
C -38.688051 42.331659 -35.001518
C -37.934991 41.456784 -35.751312
H -34.900991 42.039112 -36.481395
H -34.701959 42.214938 -35.529188
H -34.470532 39.860113 -32.335342
H -39.505284 40.557229 -32.683746
H -38.589507 43.448813 -33.047879
H -38.825721 41.174778 -36.441346
12
Step 103
C -36.431924 41.487948 -36.501544
C -35.931893 41.882208 -34.978021
C -37.418098 41.348427 -33.695407
C -38.638936 42.041032 -33.377616
C -38.686722 42.339373 -35.001386
C -37.933180 41.453672 -35.749009
H -34.897083 42.035233 -36.473440
H -34.705867 42.214748 -35.538095
H -34.453675 39.842777 -32.333635
H -39.510587 40.551733 -32.684900
H -38.576253 43.465826 -33.028707
H -38.826196 41.168057 -36.436580
12
Step 104
C -36.428684 41.483736 -36.505842
C -35.930592 41.881652 -34.979748
C -37.423475 41.345050 -33.696173
C -38.643263 42.045983 -33.375233
C -38.685391 42.347085 -35.001244
C -37.931372 41.450563 -35.746719
H -34.893347 42.031269 -36.465668
H -34.709828 42.214565 -35.546808
H -34.436825 39.825448 -32.331935
H -39.515916 40.546192 -32.686035
H -38.563011 43.482808 -33.009515
H -38.826631 41.161303 -36.431836
12
Step 105
C -36.425439 41.479528 -36.510138
C -35.929285 41.881098 -34.981472
C -37.428854 41.341675 -33.696929
C -38.647577 42.050942 -33.372864
C -38.684057 42.354795 -35.001094
C -37.929567 41.447458 -35.744443
H -34.889787 42.027212 -36.458126
H -34.713835 42.214397 -35.555281
H -34.419984 39.808125 -32.330242
H -39.521271 40.540610 -32.687152
H -38.549782 43.499735 -32.990313
H -38.827026 41.154519 -36.427109
12
Step 106
C -36.422191 41.475323 -36.514431
C -35.927972 41.880547 -34.983192
C -37.434235 41.338301 -33.697674
C -38.651880 42.055910 -33.370508
C -38.682720 42.362502 -35.000935
C -37.927766 41.444355 -35.742179
H -34.886410 42.023053 -36.450857
H -34.717876 42.214257 -35.563468
H -34.403151 39.790810 -32.328557
H -39.526650 40.534986 -32.688253
H -38.536566 43.516582 -32.971111
H -38.827378 41.147705 -36.422399
12
Step 107
C -36.418940 41.471121 -36.518722
C -35.926653 41.879999 -34.984908
C -37.439619 41.334930 -33.698408
C -38.656171 42.060890 -33.368163
C -38.681380 42.370207 -35.000767
C -37.925968 41.441257 -35.739927
H -34.883218 42.018783 -36.443902
H -34.721943 42.214156 -35.571328
H -34.386328 39.773502 -32.326881
H -39.532051 40.529324 -32.689338
H -38.523364 43.533322 -32.951921
H -38.827687 41.140862 -36.417701
12
Step 108
C -36.415686 41.466922 -36.523013
C -35.925327 41.879453 -34.986620
C -37.445007 41.331560 -33.699132
C -38.660450 42.065883 -33.365830
C -38.680037 42.377908 -35.000593
C -37.924175 41.438162 -35.737686
H -34.880213 42.014392 -36.437294
H -34.726028 42.214104 -35.578826
H -34.369514 39.756202 -32.325212
H -39.537472 40.523628 -32.690411
H -38.510178 43.549928 -32.932753
H -38.827952 41.133992 -36.413014
12
Step 109
C -36.412429 41.462725 -36.527303
C -35.923994 41.878911 -34.988327
C -37.450399 41.328194 -33.699845
C -38.664717 42.070890 -33.363506
C -38.678690 42.385606 -35.000411
C -37.922386 41.435072 -35.735457
H -34.877398 42.009874 -36.431061
H -34.730122 42.214112 -35.585933
H -34.352710 39.738910 -32.323552
H -39.542911 40.517900 -32.691474
H -38.497009 43.566374 -32.913619
H -38.828172 41.127095 -36.408334
12
Step 110
C -36.409171 41.458530 -36.531594
C -35.922653 41.878373 -34.990029
C -37.455795 41.324830 -33.700547
C -38.668971 42.075912 -33.361191
C -38.677339 42.393301 -35.000222
C -37.920602 41.431986 -35.733239
H -34.874771 42.005222 -36.425222
H -34.734218 42.214189 -35.592628
H -34.335916 39.721626 -32.321901
H -39.548368 40.512143 -32.692526
H -38.483860 43.582644 -32.894529
H -38.828345 41.120172 -36.403657
12
Step 111
C -36.405912 41.454337 -36.535885
C -35.921304 41.877838 -34.991726
C -37.461196 41.321469 -33.701239
C -38.673213 42.080949 -33.358885
C -38.675985 42.400991 -35.000026
C -37.918823 41.428905 -35.731030
H -34.872334 42.000429 -36.419791
H -34.738310 42.214345 -35.598895
H -34.319133 39.704351 -32.320260
H -39.553840 40.506359 -32.693571
H -38.470731 43.598727 -32.875489
H -38.828469 41.113227 -36.398982
12
Step 112
C -36.402652 41.450145 -36.540178
C -35.919948 41.877307 -34.993418
C -37.466602 41.318111 -33.701922
C -38.677443 42.086001 -33.356586
C -38.674626 42.408677 -34.999824
C -37.917050 41.425829 -35.728832
H -34.870084 41.995492 -36.414774
H -34.742391 42.214587 -35.604723
H -34.302361 39.687085 -32.318627
H -39.559329 40.500548 -32.694608
H -38.457622 43.614623 -32.856504
H -38.828543 41.106259 -36.394303
12
Step 113
C -36.399392 41.445954 -36.544473
C -35.918583 41.876781 -34.995105
C -37.472012 41.314756 -33.702594
C -38.681661 42.091067 -33.354295
C -38.673262 42.416359 -34.999617
C -37.915284 41.422758 -35.726642
H -34.868022 41.990404 -36.410171
H -34.746456 42.214923 -35.610106
H -34.285599 39.669828 -32.317004
H -39.564834 40.494711 -32.695638
H -38.444531 43.630339 -32.837576
H -38.828566 41.099271 -36.389618
12
Step 114
C -36.396132 41.441763 -36.548771
C -35.917209 41.876259 -34.996785
C -37.477428 41.311404 -33.703257
C -38.685867 42.096145 -33.352012
C -38.671895 42.424036 -34.999403
C -37.913524 41.419692 -35.724462
H -34.866148 41.985164 -36.405980
H -34.750500 42.215360 -35.615043
H -34.268848 39.652580 -32.315390
H -39.570355 40.488847 -32.696660
H -38.431457 43.645893 -32.818703
H -38.828534 41.092265 -36.384924
12
Step 115
C -36.392872 41.437573 -36.553072
C -35.915826 41.875741 -34.998461
C -37.482850 41.308055 -33.703911
C -38.690061 42.101234 -33.349737
C -38.670523 42.431708 -34.999184
C -37.911770 41.416632 -35.722290
H -34.864465 41.979764 -36.402198
H -34.754520 42.215903 -35.619529
H -34.252107 39.635340 -32.313785
H -39.575894 40.482953 -32.697676
H -38.418397 43.661308 -32.799882
H -38.828448 41.085243 -36.380216
12
Step 116
C -36.389613 41.433383 -36.557377
C -35.914432 41.875229 -35.000131
C -37.488276 41.304709 -33.704556
C -38.694244 42.106332 -33.347471
C -38.669146 42.439375 -34.998960
C -37.910024 41.413578 -35.720126
H -34.862976 41.974201 -36.398822
H -34.758513 42.216560 -35.623561
H -34.235375 39.618108 -32.312189
H -39.581451 40.477029 -32.698685
H -38.405348 43.676610 -32.781106
H -38.828304 41.078205 -36.375492
12
Step 117
C -36.386354 41.429192 -36.561687
C -35.913029 41.874722 -35.001796
C -37.493709 41.301366 -33.705193
C -38.698417 42.111436 -33.345215
C -38.667765 42.447037 -34.998731
C -37.908286 41.410529 -35.717970
H -34.861688 41.968468 -36.395853
H -34.762478 42.217336 -35.627136
H -34.218653 39.600884 -32.310600
H -39.587028 40.471073 -32.699686
H -38.392305 43.691826 -32.762369
H -38.828101 41.071155 -36.370749
12
Step 118
C -36.383096 41.425002 -36.566001
C -35.911613 41.874220 -35.003455
C -37.499147 41.298025 -33.705822
C -38.702578 42.116545 -33.342968
C -38.666379 42.454693 -34.998496
C -37.906555 41.407486 -35.715821
H -34.860603 41.962558 -36.393286
H -34.766413 42.218239 -35.630250
H -34.201938 39.583667 -32.309019
H -39.592625 40.465085 -32.700679
H -38.379267 43.706979 -32.743663
H -38.827837 41.064093 -36.365983
12
Step 119
C -36.379839 41.420810 -36.570322
C -35.910186 41.873725 -35.005110
C -37.504592 41.294686 -33.706444
C -38.706730 42.121656 -33.340732
C -38.664989 42.462344 -34.998257
C -37.904831 41.404448 -35.713678
H -34.859729 41.956467 -36.391118
H -34.770320 42.219272 -35.632899
H -34.185231 39.566456 -32.307444
H -39.598242 40.459063 -32.701664
H -38.366229 43.722088 -32.724983
H -38.827512 41.057020 -36.361193
12
Step 120
C -36.376582 41.416619 -36.574648
C -35.908746 41.873236 -35.006759
C -37.510043 41.291350 -33.707059
C -38.710873 42.126769 -33.338508
C -38.663594 42.469989 -34.998012
C -37.903116 41.401417 -35.711542
H -34.859071 41.950188 -36.389346
H -34.774200 42.220442 -35.635082
H -34.168529 39.549252 -32.305875
H -39.603879 40.453010 -32.702641
H -38.353191 43.737168 -32.706324
H -38.827122 41.049939 -36.356376
12
Step 121
C -36.373325 41.412426 -36.578981
C -35.907292 41.872754 -35.008404
C -37.515500 41.288016 -33.707668
C -38.715005 42.131884 -33.336294
C -38.662194 42.477629 -34.997762
C -37.901409 41.398390 -35.709411
H -34.858635 41.943715 -36.387966
H -34.778054 42.221752 -35.636797
H -34.151833 39.532052 -32.304312
H -39.609537 40.446926 -32.703610
H -38.340150 43.752228 -32.687682
H -38.826667 41.042849 -36.351530
12
Step 122
C -36.370068 41.408232 -36.583321
C -35.905823 41.872278 -35.010045
C -37.520965 41.284684 -33.708271
C -38.719128 42.136998 -33.334093
C -38.660789 42.485263 -34.997506
C -37.899709 41.395370 -35.707286
H -34.858427 41.937044 -36.386972
H -34.781887 42.223208 -35.638042
H -34.135142 39.514856 -32.302753
H -39.615214 40.440813 -32.704572
H -38.327107 43.767275 -32.669057
H -38.826146 41.035753 -36.346652
12
Step 123
C -36.366811 41.404038 -36.587668
C -35.904339 41.871810 -35.011682
C -37.526437 41.281353 -33.708868
C -38.723242 42.142111 -33.331903
C -38.659379 42.492891 -34.997246
C -37.898019 41.392355 -35.705166
H -34.858454 41.930168 -36.386361
H -34.785701 42.224813 -35.638818
H -34.118454 39.497665 -32.301199
H -39.620909 40.434672 -32.705525
H -38.314061 43.782313 -32.650447
H -38.825556 41.028651 -36.341741
12
Step 124
C -36.363553 41.399843 -36.592022
C -35.902839 41.871350 -35.013315
C -37.531917 41.278025 -33.709460
C -38.727347 42.147223 -33.329726
C -38.657964 42.500514 -34.996980
C -37.896336 41.389346 -35.703051
H -34.858720 41.923083 -36.386126
H -34.789500 42.226570 -35.639123
H -34.101769 39.480477 -32.299648
H -39.626623 40.428506 -32.706472
H -38.301011 43.797343 -32.631852
H -38.824897 41.021545 -36.336794
12
Step 125
C -36.360295 41.395646 -36.596384
C -35.901323 41.870898 -35.014945
C -37.537405 41.274699 -33.710046
C -38.731442 42.152334 -33.327561
C -38.656544 42.508130 -34.996709
C -37.894662 41.386343 -35.700939
H -34.859231 41.915784 -36.386264
H -34.793290 42.228481 -35.638958
H -34.085088 39.463293 -32.298101
H -39.632353 40.422317 -32.707412
H -38.287958 43.812368 -32.613273
H -38.824167 41.014435 -36.331811
12
Step 126
C -36.357036 41.391449 -36.600753
C -35.899789 41.870454 -35.016571
C -37.542901 41.271375 -33.710627
C -38.735528 42.157443 -33.325409
C -38.655120 42.515742 -34.996433
C -37.892996 41.383345 -35.698832
H -34.859994 41.908266 -36.386768
H -34.797075 42.230550 -35.638326
H -34.068410 39.446112 -32.296558
H -39.638100 40.416104 -32.708345
H -38.274902 43.827387 -32.594710
H -38.823365 41.007322 -36.326789
12
Step 127
C -36.353776 41.387251 -36.605130
C -35.898236 41.870018 -35.018195
C -37.548406 41.268053 -33.711204
C -38.739605 42.162550 -33.323270
C -38.653690 42.523347 -34.996151
C -37.891339 41.380353 -35.696728
H -34.861012 41.900526 -36.387636
H -34.800859 42.232777 -35.637227
H -34.051734 39.428934 -32.295019
H -39.643863 40.409871 -32.709274
H -38.261842 43.842403 -32.576165
H -38.822490 41.000207 -36.321728
12
Step 128
C -36.350514 41.383052 -36.609514
C -35.896666 41.869591 -35.019816
C -37.553920 41.264733 -33.711776
C -38.743673 42.167654 -33.321144
C -38.652256 42.530948 -34.995862
C -37.889689 41.377366 -35.694627
H -34.862293 41.892550 -36.388885
H -34.804650 42.235171 -35.635647
H -34.035062 39.411760 -32.293482
H -39.649642 40.403618 -32.710197
H -38.248779 43.857416 -32.557639
H -38.821542 40.993090 -36.316627
12
Step 129
C -36.347250 41.378853 -36.613907
C -35.895076 41.869174 -35.021433
C -37.559443 41.261415 -33.712344
C -38.747732 42.172755 -33.319031
C -38.650817 42.538543 -34.995568
C -37.888046 41.374384 -35.692529
H -34.863843 41.884335 -36.390512
H -34.808451 42.237732 -35.633590
H -34.018393 39.394589 -32.291949
H -39.655435 40.397345 -32.711115
H -38.235712 43.872425 -32.539134
H -38.820519 40.985974 -36.311484
12
Step 130
C -36.343983 41.374653 -36.618306
C -35.893468 41.868765 -35.023048
C -37.564974 41.258098 -33.712908
C -38.751782 42.177854 -33.316931
C -38.649373 42.546133 -34.995267
C -37.886411 41.371408 -35.690434
H -34.865662 41.875879 -36.392511
H -34.812268 42.240461 -35.631060
H -34.001727 39.377422 -32.290420
H -39.661243 40.391052 -32.712030
H -38.222641 43.887431 -32.520649
H -38.819420 40.978857 -36.306301
12
Step 131
C -36.340714 41.370452 -36.622713
C -35.891840 41.868366 -35.024661
C -37.570515 41.254784 -33.713467
C -38.755823 42.182950 -33.314845
C -38.647925 42.553718 -34.994959
C -37.884782 41.368436 -35.688342
H -34.867754 41.867179 -36.394877
H -34.816102 42.243359 -35.628065
H -33.985065 39.360259 -32.288895
H -39.667065 40.384741 -32.712943
H -38.209568 43.902434 -32.502186
H -38.818244 40.971742 -36.301075
12
Step 132
C -36.337442 41.366251 -36.627126
C -35.890193 41.867976 -35.026270
C -37.576065 41.251471 -33.714023
C -38.759855 42.188043 -33.312773
C -38.646472 42.561299 -34.994644
C -37.883160 41.365469 -35.686252
H -34.870121 41.858237 -36.397601
H -34.819958 42.246423 -35.624613
H -33.968407 39.343099 -32.287373
H -39.672902 40.378411 -32.713852
H -38.196491 43.917436 -32.483744
H -38.816992 40.964629 -36.295807
12
Step 133
C -36.334167 41.362050 -36.631546
C -35.888528 41.867595 -35.027878
C -37.581625 41.248159 -33.714576
C -38.763878 42.193134 -33.310714
C -38.645016 42.568874 -34.994322
C -37.881544 41.362507 -35.684165
H -34.872761 41.849053 -36.400673
H -34.823837 42.249651 -35.620717
H -33.951754 39.325944 -32.285856
H -39.678752 40.372062 -32.714761
H -38.183410 43.932438 -32.465323
H -38.815662 40.957518 -36.290495
12
Step 134
C -36.330889 41.357848 -36.635972
C -35.886843 41.867224 -35.029483
C -37.587193 41.244849 -33.715126
C -38.767892 42.198222 -33.308669
C -38.643555 42.576445 -34.993993
C -37.879934 41.359549 -35.682080
H -34.875673 41.839633 -36.404079
H -34.827744 42.253039 -35.616393
H -33.935104 39.308793 -32.284342
H -39.684617 40.365694 -32.715669
H -38.170327 43.947441 -32.446920
H -38.814254 40.950411 -36.285141
12
Step 135
C -36.327609 41.353646 -36.640404
C -35.885138 41.866862 -35.031086
C -37.592770 41.241540 -33.715673
C -38.771898 42.203308 -33.306637
C -38.642091 42.584011 -34.993657
C -37.878329 41.356595 -35.679997
H -34.878856 41.829984 -36.407799
H -34.831680 42.256578 -35.611662
H -33.918460 39.291646 -32.282833
H -39.690495 40.359306 -32.716577
H -38.157240 43.962449 -32.428533
H -38.812768 40.943308 -36.279743
12
Step 136
C -36.324326 41.349444 -36.644841
C -35.883415 41.866509 -35.032687
C -37.598356 41.238231 -33.716218
C -38.775895 42.208391 -33.304620
C -38.640623 42.591572 -34.993314
C -37.876729 41.353644 -35.677916
H -34.882302 41.820118 -36.411805
H -34.835649 42.260256 -35.606552
H -33.901820 39.274503 -32.281328
H -39.696387 40.352899 -32.717485
H -38.144150 43.977464 -32.410159
H -38.811203 40.936209 -36.274302
12
Step 137
C -36.321042 41.345241 -36.649282
C -35.881674 41.866166 -35.034286
C -37.603950 41.234923 -33.716762
C -38.779883 42.213472 -33.302616
C -38.639153 42.599129 -34.992964
C -37.875133 41.350697 -35.675837
H -34.886005 41.810053 -36.416064
H -34.839652 42.264057 -35.601097
H -33.885184 39.257366 -32.279827
H -39.702293 40.346472 -32.718395
H -38.131056 43.992487 -32.391795
H -38.809560 40.929116 -36.268817
12
Step 138
C -36.317756 41.341038 -36.653729
C -35.879913 41.865832 -35.035883
C -37.609553 41.231616 -33.717304
C -38.783864 42.218552 -33.300626
C -38.637680 42.606682 -34.992606
C -37.873541 41.347753 -35.673760
H -34.889955 41.799810 -36.420538
H -34.843693 42.267964 -35.595336
H -33.868554 39.240232 -32.278330
H -39.708213 40.340026 -32.719306
H -38.117958 44.007521 -32.373438
H -38.807839 40.922030 -36.263290
12
Step 139
C -36.314469 41.336834 -36.658179
C -35.878134 41.865507 -35.037479
C -37.615164 41.228308 -33.717845
C -38.787836 42.223630 -33.298650
C -38.636205 42.614231 -34.992242
C -37.871953 41.344812 -35.671685
H -34.894139 41.789414 -36.425182
H -34.847772 42.271954 -35.589313
H -33.851927 39.223103 -32.276837
H -39.714146 40.333561 -32.720220
H -38.104856 44.022566 -32.355084
H -38.806040 40.914951 -36.257719
12
Step 140
C -36.311184 41.332630 -36.662633
C -35.876337 41.865192 -35.039074
C -37.620782 41.225001 -33.718386
C -38.791800 42.228706 -33.296687
C -38.634728 42.621775 -34.991870
C -37.870367 41.341873 -35.669612
H -34.898546 41.778891 -36.429952
H -34.851893 42.276004 -35.583073
H -33.835304 39.205978 -32.275348
H -39.720093 40.327076 -32.721136
H -38.091751 44.037625 -32.336732
H -38.804163 40.907880 -36.252106
12
Step 141
C -36.307900 41.328424 -36.667091
C -35.874521 41.864885 -35.040668
C -37.626408 41.221693 -33.718927
C -38.795757 42.233782 -33.294738
C -38.633250 42.629316 -34.991492
C -37.868784 41.338935 -35.667540
H -34.903160 41.768270 -36.434803
H -34.856056 42.280091 -35.576658
H -33.818686 39.188857 -32.273863
H -39.726053 40.320572 -32.722054
H -38.078640 44.052697 -32.318378
H -38.802209 40.900817 -36.246450
12
Step 142
C -36.304619 41.324217 -36.671552
C -35.872688 41.864588 -35.042261
C -37.632042 41.218385 -33.719469
C -38.799706 42.238858 -33.292803
C -38.631770 42.636853 -34.991106
C -37.867204 41.335999 -35.665471
H -34.907966 41.757576 -36.439691
H -34.860264 42.284192 -35.570110
H -33.802071 39.171740 -32.272381
H -39.732027 40.314049 -32.722975
H -38.065525 44.067785 -32.300020
H -38.800177 40.893764 -36.240754
12
Step 143
C -36.301341 41.320008 -36.676016
C -35.870837 41.864299 -35.043853
C -37.637682 41.215076 -33.720012
C -38.803649 42.243933 -33.290881
C -38.630290 42.644386 -34.990713
C -37.865625 41.333063 -35.663403
H -34.912952 41.746835 -36.444580
H -34.864515 42.288288 -35.563465
H -33.785460 39.154627 -32.270903
H -39.738014 40.307507 -32.723899
H -38.052406 44.082888 -32.281656
H -38.798068 40.886722 -36.235016
12
Step 144
C -36.298069 41.315797 -36.680483
C -35.868968 41.864020 -35.045444
C -37.643328 41.211766 -33.720556
C -38.807584 42.249008 -33.288972
C -38.628810 42.651917 -34.990313
C -37.864047 41.330127 -35.661338
H -34.918104 41.736068 -36.449436
H -34.868811 42.292360 -35.556754
H -33.768852 39.137518 -32.269428
H -39.744014 40.300946 -32.724826
H -38.039280 44.098007 -32.263285
H -38.795883 40.879691 -36.229239
12
Step 145
C -36.294801 41.311584 -36.684953
C -35.867082 41.863749 -35.047036
C -37.648980 41.208455 -33.721102
C -38.811512 42.254083 -33.287077
C -38.627330 42.659446 -34.989905
C -37.862470 41.327190 -35.659275
H -34.923414 41.725293 -36.454231
H -34.873151 42.296396 -35.550003
H -33.752246 39.120411 -32.267957
H -39.750027 40.294366 -32.725755
H -38.026150 44.113142 -32.244905
H -38.793622 40.872671 -36.223422
12
Step 146
C -36.291540 41.307369 -36.689425
C -35.865178 41.863486 -35.048626
C -37.654638 41.205142 -33.721650
C -38.815435 42.259159 -33.285194
C -38.625851 42.666973 -34.989490
C -37.860894 41.324252 -35.657214
H -34.928871 41.714526 -36.458945
H -34.877533 42.300383 -35.543233
H -33.735644 39.103308 -32.266488
H -39.756054 40.287767 -32.726686
H -38.013013 44.128296 -32.226515
H -38.791285 40.865665 -36.217568
12
Step 147
C -36.288286 41.303152 -36.693900
C -35.863258 41.863232 -35.050217
C -37.660301 41.201828 -33.722201
C -38.819351 42.264235 -33.283325
C -38.624372 42.674498 -34.989066
C -37.859318 41.321312 -35.655155
H -34.934465 41.703780 -36.463558
H -34.881956 42.304313 -35.536462
H -33.719045 39.086208 -32.265022
H -39.762095 40.281149 -32.727619
H -37.999869 44.143467 -32.208114
H -38.788874 40.858672 -36.211677
12
Step 148
C -36.285039 41.298932 -36.698376
C -35.861322 41.862986 -35.051807
C -37.665969 41.198512 -33.722756
C -38.823262 42.269313 -33.281467
C -38.622895 42.682023 -34.988635
C -37.857742 41.318369 -35.653099
H -34.940187 41.693065 -36.468059
H -34.886419 42.308176 -35.529705
H -33.702447 39.069110 -32.263558
H -39.768149 40.274512 -32.728553
H -37.986719 44.158656 -32.189701
H -38.786388 40.851694 -36.205751
12
Step 149
C -36.281799 41.294709 -36.702855
C -35.859370 41.862748 -35.053398
C -37.671641 41.195195 -33.723313
C -38.827168 42.274392 -33.279623
C -38.621420 42.689547 -34.988195
C -37.856166 41.315423 -35.651045
H -34.946029 41.682393 -36.472434
H -34.890919 42.311967 -35.522973
H -33.685853 39.052015 -32.262097
H -39.774217 40.267854 -32.729489
H -37.973562 44.173863 -32.171277
H -38.783829 40.844731 -36.199790
12
Step 150
C -36.278567 41.290485 -36.707334
C -35.857403 41.862518 -35.054989
C -37.677317 41.191875 -33.723875
C -38.831069 42.279473 -33.277790
C -38.619946 42.697071 -34.987748
C -37.854589 41.312473 -35.648994
H -34.951986 41.671771 -36.476674
H -34.895456 42.315680 -35.516279
H -33.669260 39.034923 -32.260638
H -39.780298 40.261178 -32.730426
H -37.960397 44.189087 -32.152841
H -38.781196 40.837784 -36.193796
12
Step 151
C -36.275343 41.286258 -36.711814
C -35.855421 41.862296 -35.056580
C -37.682996 41.188553 -33.724440
C -38.834965 42.284556 -33.275968
C -38.618475 42.704595 -34.987293
C -37.853012 41.309518 -35.646945
H -34.958051 41.661207 -36.480774
H -34.900027 42.319308 -35.509632
H -33.652670 39.017833 -32.259182
H -39.786394 40.254482 -32.731363
H -37.947226 44.204326 -32.134393
H -38.778491 40.830854 -36.187771
12
Step 152
C -36.272126 41.282028 -36.716294
C -35.853424 41.862080 -35.058172
C -37.688678 41.185228 -33.725010
C -38.838857 42.289641 -33.274158
C -38.617006 42.712120 -34.986829
C -37.851434 41.306559 -35.644898
H -34.964225 41.650705 -36.484729
H -34.904631 42.322847 -35.503041
H -33.636081 39.000745 -32.257727
H -39.792503 40.247766 -32.732300
H -37.934048 44.219579 -32.115936
H -38.775714 40.823942 -36.181717
12
Step 153
C -36.268915 41.277797 -36.720774
C -35.851415 41.861872 -35.059765
C -37.694363 41.181901 -33.725584
C -38.842744 42.294729 -33.272359
C -38.615540 42.719647 -34.986358
C -37.849855 41.303594 -35.642854
H -34.970508 41.640269 -36.488537
H -34.909266 42.326295 -35.496510
H -33.619495 38.983659 -32.256274
H -39.798626 40.241032 -32.733237
H -37.920864 44.234844 -32.097470
H -38.772867 40.817047 -36.175634
12
Step 154
C -36.265711 41.273565 -36.725252
C -35.849393 41.861670 -35.061360
C -37.700049 41.178571 -33.726163
C -38.846628 42.299820 -33.270571
C -38.614077 42.727174 -34.985879
C -37.848275 41.300624 -35.640811
H -34.976906 41.629901 -36.492195
H -34.913931 42.329647 -35.490046
H -33.602910 38.966574 -32.254822
H -39.804762 40.234279 -32.734173
H -37.907674 44.250119 -32.078995
H -38.769949 40.810171 -36.169524
12
Step 155
C -36.262511 41.269332 -36.729728
C -35.847358 41.861474 -35.062956
C -37.705738 41.175239 -33.726748
C -38.850508 42.304914 -33.268793
C -38.612617 42.734704 -34.985391
C -37.846695 41.297649 -35.638771
H -34.983424 41.619605 -36.495703
H -34.918625 42.332899 -35.483655
H -33.586326 38.949491 -32.253372
H -39.810912 40.227507 -32.735107
H -37.894479 44.265402 -32.060514
H -38.766962 40.803314 -36.163390
12
Step 156
C -36.259314 41.265098 -36.734201
C -35.845312 41.861284 -35.064555
C -37.711427 41.171903 -33.727337
C -38.854384 42.310012 -33.267025
C -38.611160 42.742235 -34.984896
C -37.845114 41.294668 -35.636732
H -34.990066 41.609382 -36.499061
H -34.923347 42.336049 -35.477341
H -33.569744 38.932410 -32.251924
H -39.817075 40.220717 -32.736041
H -37.881281 44.280691 -32.042027
H -38.763908 40.796477 -36.157232
12
Step 157
C -36.256121 41.260863 -36.738670
C -35.843254 41.861100 -35.066156
C -37.717117 41.168563 -33.727932
C -38.858257 42.315113 -33.265267
C -38.609706 42.749768 -34.984393
C -37.843532 41.291681 -35.634695
H -34.996839 41.599235 -36.502268
H -34.928095 42.339091 -35.471110
H -33.553163 38.915330 -32.250476
H -39.823250 40.213909 -32.736972
H -37.868079 44.295984 -32.023536
H -38.760786 40.789658 -36.151053
12
Step 158
C -36.252929 41.256629 -36.743135
C -35.841186 41.860922 -35.067760
C -37.722807 41.165220 -33.728532
C -38.862127 42.320219 -33.263519
C -38.608255 42.757302 -34.983882
C -37.841950 41.288688 -35.632659
H -35.003748 41.589168 -36.505322
H -34.932865 42.342022 -35.464970
H -33.536583 38.898252 -32.249030
H -39.829439 40.207085 -32.737901
H -37.854875 44.311279 -32.005043
H -38.757599 40.782859 -36.144854
12
Step 159
C -36.249738 41.252394 -36.747594
C -35.839108 41.860748 -35.069368
C -37.728498 41.161874 -33.729138
C -38.865994 42.325330 -33.261781
C -38.606808 42.764838 -34.983364
C -37.840368 41.285690 -35.630625
H -35.010798 41.579187 -36.508221
H -34.937657 42.344837 -35.458928
H -33.520003 38.881174 -32.247585
H -39.835639 40.200243 -32.738829
H -37.841669 44.326574 -31.986548
H -38.754347 40.776079 -36.138637
12
Step 160
C -36.246547 41.248161 -36.752048
C -35.837021 41.860579 -35.070978
C -37.734188 41.158524 -33.729749
C -38.869858 42.330445 -33.260051
C -38.605363 42.772376 -34.982838
C -37.838785 41.282686 -35.628592
H -35.017994 41.569297 -36.510960
H -34.942467 42.347530 -35.452994
H -33.503425 38.864097 -32.246141
H -39.841851 40.193386 -32.739754
H -37.828464 44.341868 -31.968053
H -38.751031 40.769319 -36.132403
12
Step 161
C -36.243356 41.243928 -36.756495
C -35.834924 41.860415 -35.072593
C -37.739878 41.155169 -33.730366
C -38.873719 42.335565 -33.258331
C -38.603921 42.779915 -34.982304
C -37.837203 41.279677 -35.626560
H -35.025339 41.559502 -36.513537
H -34.947293 42.350097 -35.447175
H -33.486847 38.847021 -32.244697
H -39.848075 40.186513 -32.740676
H -37.815259 44.357159 -31.949560
H -38.747653 40.762577 -36.126154
12
Step 162
C -36.240163 41.239697 -36.760934
C -35.832820 41.860255 -35.074211
C -37.745567 41.151811 -33.730989
C -38.877577 42.340691 -33.256620
C -38.602481 42.787454 -34.981764
C -37.835622 41.276664 -35.624528
H -35.032836 41.549806 -36.515951
H -34.952132 42.352534 -35.441477
H -33.470269 38.829946 -32.243254
H -39.854309 40.179625 -32.741596
H -37.802056 44.372444 -31.931069
H -38.744213 40.755854 -36.119891
12
Step 163
C -36.236967 41.235466 -36.765366
C -35.830708 41.860098 -35.075834
C -37.751256 41.148448 -33.731617
C -38.881433 42.345822 -33.254917
C -38.601044 42.794995 -34.981216
C -37.834042 41.273647 -35.622496
H -35.040489 41.540212 -36.518203
H -34.956981 42.354841 -35.435905
H -33.453692 38.812871 -32.241812
H -39.860555 40.172722 -32.742514
H -37.788855 44.387724 -31.912583
H -38.740712 40.749149 -36.113617
12
Step 164
C -36.233769 41.231238 -36.769789
C -35.828589 41.859945 -35.077462
C -37.756943 41.145081 -33.732250
C -38.885286 42.350958 -33.253223
C -38.599608 42.802535 -34.980661
C -37.832464 41.270625 -35.620465
H -35.048299 41.530720 -36.520296
H -34.961837 42.357018 -35.430459
H -33.437116 38.795798 -32.240370
H -39.866812 40.165805 -32.743429
H -37.775658 44.402996 -31.894103
H -38.737151 40.742461 -36.107332
12
Step 165
C -36.230568 41.227011 -36.774203
C -35.826463 41.859795 -35.079094
C -37.762630 41.141710 -33.732890
C -38.889137 42.356100 -33.251537
C -38.598175 42.810075 -34.980100
C -37.830887 41.267601 -35.618433
H -35.056268 41.521327 -36.522236
H -34.966695 42.359071 -35.425139
H -33.420540 38.778724 -32.238929
H -39.873078 40.158875 -32.744342
H -37.762465 44.418258 -31.875629
H -38.733531 40.735791 -36.101038
12
Step 166
C -36.227362 41.222786 -36.778608
C -35.824332 41.859647 -35.080731
C -37.768314 41.138334 -33.733534
C -38.892985 42.361248 -33.249860
C -38.596743 42.817614 -34.979532
C -37.829313 41.264573 -35.616401
H -35.064397 41.512032 -36.524028
H -34.971551 42.361003 -35.419940
H -33.403964 38.761651 -32.237488
H -39.879354 40.151932 -32.745252
H -37.749278 44.433510 -31.857163
H -38.729853 40.729137 -36.094737
12
Step 167
C -36.224153 41.218564 -36.783003
C -35.822194 41.859502 -35.082373
C -37.773998 41.134955 -33.734184
C -38.896831 42.366402 -33.248190
C -38.595312 42.825152 -34.978958
C -37.827742 41.261543 -35.614368
H -35.072686 41.502830 -36.525683
H -34.976400 42.362824 -35.414858
H -33.387389 38.744579 -32.236047
H -39.885640 40.144977 -32.746160
H -37.736096 44.448749 -31.838707
H -38.726118 40.722499 -36.088431
12
Step 168
C -36.220940 41.214343 -36.787388
C -35.820051 41.859358 -35.084020
C -37.779680 41.131571 -33.734840
C -38.900674 42.371561 -33.246529
C -38.593883 42.832689 -34.978377
C -37.826174 41.258511 -35.612334
H -35.081136 41.493715 -36.527206
H -34.981237 42.364540 -35.409886
H -33.370814 38.727507 -32.234607
H -39.891934 40.138010 -32.747065
H -37.722922 44.463974 -31.820262
H -38.722327 40.715877 -36.082119
12
Step 169
C -36.217722 41.210125 -36.791764
C -35.817904 41.859216 -35.085672
C -37.785361 41.128183 -33.735500
C -38.904514 42.376727 -33.244875
C -38.592454 42.840224 -34.977790
C -37.824609 41.255477 -35.610299
H -35.089748 41.484684 -36.528608
H -34.986057 42.366161 -35.405020
H -33.354239 38.710435 -32.233167
H -39.898238 40.131033 -32.747968
H -37.709756 44.479183 -31.801829
H -38.718480 40.709270 -36.075805
12
Step 170
C -36.214499 41.205909 -36.796130
C -35.815752 41.859075 -35.087330
C -37.791040 41.124792 -33.736165
C -38.908352 42.381898 -33.243230
C -38.591027 42.847757 -34.977197
C -37.823048 41.252442 -35.608263
H -35.098520 41.475731 -36.529893
H -34.990854 42.367694 -35.400254
H -33.337664 38.693363 -32.231728
H -39.904549 40.124045 -32.748868
H -37.696599 44.494375 -31.783409
H -38.714580 40.702677 -36.069489
12
Step 171
C -36.211271 41.201695 -36.800485
C -35.813597 41.858935 -35.088992
C -37.796718 41.121397 -33.736834
C -38.912187 42.387074 -33.241591
C -38.589600 42.855287 -34.976598
C -37.821492 41.249406 -35.606227
H -35.107449 41.466855 -36.531067
H -34.995622 42.369146 -35.395586
H -33.321090 38.676291 -32.230288
H -39.910869 40.117048 -32.749766
H -37.683451 44.509549 -31.765003
H -38.710625 40.696097 -36.063172
12
Step 172
C -36.208039 41.197483 -36.804831
C -35.811438 41.858795 -35.090659
C -37.802394 41.117999 -33.737508
C -38.916019 42.392256 -33.239961
C -38.588174 42.862815 -34.975993
C -37.819940 41.246369 -35.604189
H -35.116533 41.458057 -36.532131
H -35.000358 42.370522 -35.391017
H -33.304515 38.659220 -32.228849
H -39.917195 40.110041 -32.750661
H -37.670312 44.524704 -31.746613
H -38.706618 40.689531 -36.056856
12
Step 173
C -36.204803 41.193273 -36.809168
C -35.809275 41.858655 -35.092331
C -37.808069 41.114598 -33.738185
C -38.919848 42.397443 -33.238338
C -38.586748 42.870340 -34.975382
C -37.818393 41.243331 -35.602149
H -35.125763 41.449338 -36.533082
H -35.005055 42.371825 -35.386548
H -33.287941 38.642149 -32.227409
H -39.923529 40.103027 -32.751554
H -37.657184 44.539841 -31.728237
H -38.702559 40.682978 -36.050542
12
Step 174
C -36.201562 41.189065 -36.813495
C -35.807110 41.858514 -35.094008
C -37.813744 41.111194 -33.738867
C -38.923673 42.402635 -33.236724
C -38.585323 42.877862 -34.974765
C -37.816852 41.240293 -35.600109
H -35.135133 41.440705 -36.533914
H -35.009710 42.373057 -35.382185
H -33.271366 38.625078 -32.225970
H -39.929869 40.096004 -32.752444
H -37.644065 44.554958 -31.709877
H -38.698449 40.676438 -36.044231
12
Step 175
C -36.198318 41.184859 -36.817813
C -35.804942 41.858372 -35.095690
C -37.819417 41.107788 -33.739551
C -38.927496 42.407831 -33.235117
C -38.583899 42.885382 -34.974142
C -37.815316 41.237255 -35.598067
H -35.144632 41.432165 -36.534619
H -35.014319 42.374216 -35.377933
H -33.254792 38.608006 -32.224531
H -39.936216 40.088975 -32.753331
H -37.630957 44.570057 -31.691532
H -38.694290 40.669909 -36.037925
12
Step 176
C -36.195071 41.180655 -36.822122
C -35.802772 41.858228 -35.097377
C -37.825089 41.104380 -33.740239
C -38.931315 42.413032 -33.233517
C -38.582475 42.892898 -34.973513
C -37.813786 41.234216 -35.596025
H -35.154252 41.423726 -36.535185
H -35.018878 42.375302 -35.373802
H -33.238218 38.590935 -32.223091
H -39.942569 40.081939 -32.754215
H -37.617858 44.585136 -31.673203
H -38.690083 40.663393 -36.031623
12
Step 177
C -36.191821 41.176452 -36.826422
C -35.800600 41.858082 -35.099070
C -37.830762 41.100970 -33.740929
C -38.935130 42.418236 -33.231926
C -38.581052 42.900411 -34.972878
C -37.812262 41.231177 -35.593981
H -35.163980 41.415399 -36.535601
H -35.023387 42.376310 -35.369799
H -33.221643 38.573864 -32.221652
H -39.948927 40.074897 -32.755096
H -37.604770 44.600196 -31.654890
H -38.685829 40.656888 -36.025327
12
Step 178
C -36.188569 41.172251 -36.830713
C -35.798426 41.857933 -35.100770
C -37.836433 41.097559 -33.741622
C -38.938941 42.423443 -33.230343
C -38.579630 42.907922 -34.972237
C -37.810744 41.228137 -35.591936
H -35.173804 41.407193 -36.535853
H -35.027843 42.377238 -35.365933
H -33.205069 38.556792 -32.220213
H -39.955290 40.067850 -32.755974
H -37.591690 44.615238 -31.636591
H -38.681530 40.650394 -36.019039
12
Step 179
C -36.185315 41.168052 -36.834995
C -35.796251 41.857781 -35.102476
C -37.842105 41.094147 -33.742317
C -38.942748 42.428653 -33.228768
C -38.578209 42.915430 -34.971590
C -37.809233 41.225097 -35.589889
H -35.183711 41.399120 -36.535928
H -35.032245 42.378083 -35.362210
H -33.188495 38.539721 -32.218773
H -39.961657 40.060798 -32.756848
H -37.578620 44.630263 -31.618306
H -38.677188 40.643911 -36.012758
12
Step 180
C -36.182060 41.163854 -36.839269
C -35.794073 41.857625 -35.104190
C -37.847777 41.090735 -33.743013
C -38.946551 42.433866 -33.227201
C -38.576788 42.922935 -34.970937
C -37.807729 41.222055 -35.587842
H -35.193686 41.391189 -36.535812
H -35.036595 42.378839 -35.358637
H -33.171920 38.522650 -32.217334
H -39.968029 40.053741 -32.757720
H -37.565559 44.645271 -31.600034
H -38.672805 40.637438 -36.006485
12
Step 181
C -36.178806 41.159657 -36.843535
C -35.791893 41.857465 -35.105911
C -37.853449 41.087323 -33.743711
C -38.950349 42.439080 -33.225642
C -38.575369 42.930438 -34.970277
C -37.806232 41.219013 -35.585794
H -35.203717 41.383410 -36.535492
H -35.040892 42.379505 -35.355221
H -33.155346 38.505579 -32.215895
H -39.974405 40.046682 -32.758588
H -37.552505 44.660265 -31.581775
H -38.668383 40.630975 -36.000221
12
Step 182
C -36.175551 41.155461 -36.847794
C -35.789712 41.857301 -35.107641
C -37.859122 41.083912 -33.744410
C -38.954143 42.444296 -33.224093
C -38.573952 42.937939 -34.969611
C -37.804741 41.215969 -35.583745
H -35.213788 41.375792 -36.534958
H -35.045138 42.380077 -35.351963
H -33.138771 38.488507 -32.214455
H -39.980785 40.039619 -32.759453
H -37.539458 44.675246 -31.563527
H -38.663924 40.624522 -35.993967
12
Step 183
C -36.172299 41.151265 -36.852046
C -35.787528 41.857132 -35.109379
C -37.864796 41.080501 -33.745111
C -38.957932 42.449513 -33.222551
C -38.572536 42.945438 -34.968939
C -37.803259 41.212924 -35.581695
H -35.223887 41.368341 -36.534199
H -35.049336 42.380554 -35.348865
H -33.122197 38.471436 -32.213016
H -39.987168 40.032554 -32.760315
H -37.526418 44.690213 -31.545289
H -38.659430 40.618078 -35.987723
12
Step 184
C -36.169048 41.147071 -36.856292
C -35.785342 41.856958 -35.111126
C -37.870470 41.077091 -33.745811
C -38.961716 42.454730 -33.221018
C -38.571121 42.952936 -34.968261
C -37.801783 41.209877 -35.579644
H -35.233998 41.361063 -36.533208
H -35.053487 42.380933 -35.345929
H -33.105623 38.454365 -32.211577
H -39.993553 40.025488 -32.761173
H -37.513383 44.705170 -31.527061
H -38.654903 40.611643 -35.981489
12
Step 185
C -36.165799 41.142877 -36.860532
C -35.783154 41.856778 -35.112883
C -37.876146 41.073684 -33.746513
C -38.965495 42.459948 -33.219495
C -38.569709 42.960432 -34.967575
C -37.800314 41.206828 -35.577591
H -35.244109 41.353964 -36.531978
H -35.057594 42.381214 -35.343153
H -33.089048 38.437293 -32.210137
H -39.999940 40.018420 -32.762028
H -37.500354 44.720117 -31.508842
H -38.650345 40.605217 -35.975266
12
Step 186
C -36.162554 41.138683 -36.864767
C -35.780963 41.856594 -35.114649
C -37.881824 41.070277 -33.747214
C -38.969269 42.465165 -33.217980
C -38.568298 42.967927 -34.966884
C -37.798853 41.203776 -35.575538
H -35.254208 41.347046 -36.530503
H -35.061660 42.381398 -35.340535
H -33.072474 38.420222 -32.208698
H -40.006330 40.011353 -32.762880
H -37.487330 44.735055 -31.490631
H -38.645760 40.598800 -35.969055
12
Step 187
C -36.159312 41.134488 -36.868998
C -35.778770 41.856403 -35.116425
C -37.887503 41.066873 -33.747916
C -38.973038 42.470381 -33.216474
C -38.566890 42.975422 -34.966185
C -37.797399 41.200722 -35.573483
H -35.264284 41.340311 -36.528781
H -35.065689 42.381485 -35.338070
H -33.055900 38.403151 -32.207258
H -40.012721 40.004285 -32.763728
H -37.474310 44.749985 -31.472427
H -38.641147 40.592390 -35.962854
12
Step 188
C -36.156075 41.130294 -36.873225
C -35.776573 41.856208 -35.118211
C -37.893183 41.063472 -33.748618
C -38.976802 42.475596 -33.214976
C -38.565485 42.982915 -34.965480
C -37.795953 41.197666 -35.571426
H -35.274328 41.333761 -36.526809
H -35.069682 42.381477 -35.335755
H -33.039325 38.386080 -32.205819
H -40.019113 39.997219 -32.764573
H -37.461293 44.764908 -31.454230
H -38.636510 40.585989 -35.956666
12
Step 189
C -36.152841 41.126099 -36.877450
C -35.774374 41.856007 -35.120006
C -37.898866 41.060072 -33.749320
C -38.980560 42.480810 -33.213488
C -38.564082 42.990409 -34.964768
C -37.794513 41.194607 -35.569368
H -35.284331 41.327395 -36.524587
H -35.073643 42.381374 -35.333585
H -33.022751 38.369008 -32.204380
H -40.025506 39.990155 -32.765414
H -37.448279 44.779826 -31.436038
H -38.631850 40.579595 -35.950490
12
Step 190
C -36.149613 41.121903 -36.881673
C -35.772172 41.855801 -35.121811
C -37.904550 41.056676 -33.750022
C -38.984313 42.486022 -33.212009
C -38.562682 42.997903 -34.964049
C -37.793081 41.191544 -35.567308
H -35.294284 41.321211 -36.522117
H -35.077574 42.381179 -35.331554
H -33.006176 38.351937 -32.202940
H -40.031899 39.983094 -32.766252
H -37.435268 44.794739 -31.417852
H -38.627168 40.573210 -35.944326
12
Step 191
C -36.146389 41.117706 -36.885894
C -35.769967 41.855589 -35.123626
C -37.910236 41.053283 -33.750724
C -38.988062 42.491232 -33.210539
C -38.561285 43.005397 -34.963323
C -37.791655 41.188478 -35.565246
H -35.304181 41.315209 -36.519401
H -35.081478 42.380894 -35.329658
H -32.989602 38.334866 -32.201501
H -40.038293 39.976036 -32.767087
H -37.422259 44.809647 -31.399670
H -38.622465 40.566833 -35.938175
12
Step 192
C -36.143170 41.113508 -36.890116
C -35.767759 41.855372 -35.125449
C -37.915923 41.049892 -33.751425
C -38.991805 42.496441 -33.209077
C -38.559892 43.012892 -34.962590
C -37.790237 41.185409 -35.563183
H -35.314013 41.309384 -36.516443
H -35.085357 42.380521 -35.327891
H -32.973028 38.317794 -32.200062
H -40.044686 39.968983 -32.767918
H -37.409252 44.824551 -31.381493
H -38.617742 40.560464 -35.932038
12
Step 193
C -36.139957 41.109309 -36.894337
C -35.765548 41.855150 -35.127281
C -37.921612 41.046505 -33.752127
C -38.995542 42.501647 -33.207625
C -38.558501 43.020387 -34.961850
C -37.788825 41.182337 -35.561117
H -35.323774 41.303734 -36.513246
H -35.089212 42.380064 -35.326248
H -32.956453 38.300723 -32.198622
H -40.051079 39.961934 -32.768746
H -37.396248 44.839452 -31.363320
H -38.612999 40.554104 -35.925915
12
Step 194
C -36.136750 41.105108 -36.898560
C -35.763335 41.854923 -35.129120
C -37.927303 41.043121 -33.752828
C -38.999275 42.506851 -33.206182
C -38.557115 43.027883 -34.961102
C -37.787420 41.179260 -35.559049
H -35.333456 41.298256 -36.509816
H -35.093044 42.379526 -35.324726
H -32.939879 38.283652 -32.197183
H -40.057471 39.954891 -32.769570
H -37.383245 44.854348 -31.345151
H -38.608237 40.547753 -35.919807
12
Step 195
C -36.133549 41.100905 -36.902785
C -35.761120 41.854691 -35.130967
C -37.932995 41.039741 -33.753528
C -39.003003 42.512052 -33.204747
C -38.555731 43.035380 -34.960348
C -37.786021 41.176180 -35.556979
H -35.343049 41.292945 -36.506159
H -35.096853 42.378909 -35.323319
H -32.923305 38.266581 -32.195744
H -40.063862 39.947855 -32.770391
H -37.370245 44.869241 -31.326987
H -38.603454 40.541411 -35.913715
12
Step 196
C -36.130355 41.096699 -36.907012
C -35.758904 41.854455 -35.132819
C -37.938689 41.036364 -33.754228
C -39.006725 42.517251 -33.203321
C -38.554352 43.042878 -34.959587
C -37.784629 41.173096 -35.554907
H -35.352544 41.287798 -36.502279
H -35.100639 42.378218 -35.322024
H -32.906730 38.249509 -32.194304
H -40.070251 39.940827 -32.771209
H -37.357246 44.884129 -31.308827
H -38.598652 40.535079 -35.907640
12
Step 197
C -36.127168 41.092492 -36.911244
C -35.756687 41.854213 -35.134677
C -37.944384 41.032991 -33.754928
C -39.010442 42.522447 -33.201903
C -38.552976 43.050377 -34.958818
C -37.783243 41.170008 -35.552832
H -35.361931 41.282812 -36.498184
H -35.104401 42.377456 -35.320839
H -32.890156 38.232438 -32.192865
H -40.076638 39.933807 -32.772024
H -37.344250 44.899014 -31.290672
H -38.593830 40.528757 -35.901582
12
Step 198
C -36.123989 41.088281 -36.915479
C -35.754470 41.853968 -35.136539
C -37.950081 41.029621 -33.755626
C -39.014155 42.527641 -33.200494
C -38.551605 43.057878 -34.958043
C -37.781863 41.166917 -35.550755
H -35.371200 41.277980 -36.493878
H -35.108138 42.376627 -35.319761
H -32.873581 38.215367 -32.191426
H -40.083022 39.926797 -32.772836
H -37.331257 44.913894 -31.272521
H -38.588986 40.522446 -35.895544
12
Step 199
C -36.120818 41.084068 -36.919721
C -35.752253 41.853717 -35.138404
C -37.955779 41.026256 -33.756324
C -39.017862 42.532832 -33.199093
C -38.550237 43.065380 -34.957260
C -37.780489 41.163821 -35.548676
H -35.380339 41.273301 -36.489368
H -35.111846 42.375736 -35.318789
H -32.857007 38.198295 -32.189986
H -40.089402 39.919797 -32.773645
H -37.318266 44.928769 -31.254374
H -38.584120 40.516145 -35.889525
12
Step 200
C -36.117656 41.079851 -36.923968
C -35.750037 41.853463 -35.140270
C -37.961478 41.022894 -33.757020
C -39.021564 42.538020 -33.197700
C -38.548873 43.072883 -34.956471
C -37.779121 41.160722 -35.546594
H -35.389338 41.268769 -36.484659
H -35.115523 42.374787 -35.317921
H -32.840433 38.181224 -32.188547
H -40.095780 39.912808 -32.774451
H -37.305278 44.943640 -31.236232
H -38.579231 40.509855 -35.883529
12
Step 201
C -36.114503 41.075630 -36.928223
C -35.747823 41.853204 -35.142137
C -37.967178 41.019536 -33.757716
C -39.025262 42.543205 -33.196314
C -38.547514 43.080389 -34.955676
C -37.777760 41.157618 -35.544510
H -35.398186 41.264382 -36.479756
H -35.119165 42.373785 -35.317157
H -32.823858 38.164153 -32.187108
H -40.102153 39.905831 -32.775255
H -37.292293 44.958506 -31.218095
H -38.574318 40.503577 -35.877555
12
Step 202
C -36.111361 41.071406 -36.932487
C -35.745612 41.852941 -35.144004
C -37.972879 41.016182 -33.758410
C -39.028954 42.548387 -33.194937
C -38.546158 43.087896 -34.954873
C -37.776404 41.154511 -35.542424
H -35.406873 41.260136 -36.474663
H -35.122767 42.372735 -35.316497
H -32.807284 38.147082 -32.185668
H -40.108522 39.898865 -32.776056
H -37.279312 44.973367 -31.199963
H -38.569381 40.497311 -35.871605
12
Step 203
C -36.108230 41.067177 -36.936760
C -35.743404 41.852674 -35.145868
C -37.978580 41.012831 -33.759103
C -39.032643 42.553567 -33.193566
C -38.544807 43.095404 -34.954065
C -37.775054 41.151400 -35.540334
H -35.415389 41.256027 -36.469384
H -35.126324 42.371643 -35.315942
H -32.790710 38.130010 -32.184229
H -40.114886 39.891913 -32.776854
H -37.266333 44.988223 -31.181837
H -38.564418 40.491056 -35.865681
12
Step 204
C -36.105109 41.062944 -36.941044
C -35.741201 41.852402 -35.147728
C -37.984282 41.009484 -33.759794
C -39.036327 42.558745 -33.192203
C -38.543460 43.102914 -34.953250
C -37.773710 41.148285 -35.538242
H -35.423725 41.252054 -36.463922
H -35.129828 42.370515 -35.315493
H -32.774135 38.112939 -32.182790
H -40.121246 39.884973 -32.777650
H -37.253359 45.003074 -31.163715
H -38.559428 40.484814 -35.859784
12
Step 205
C -36.102000 41.058706 -36.945339
C -35.739004 41.852126 -35.149584
C -37.989984 41.006140 -33.760485
C -39.040006 42.563920 -33.190846
C -38.542116 43.110427 -34.952429
C -37.772372 41.145167 -35.536147
H -35.431872 41.248215 -36.458278
H -35.133273 42.369358 -35.315153
H -32.757561 38.095868 -32.181350
H -40.127600 39.878047 -32.778443
H -37.240387 45.017919 -31.145599
H -38.554412 40.478584 -35.853916
12
Step 206
C -36.098903 41.054462 -36.949648
C -35.736813 41.851845 -35.151435
C -37.995687 41.002799 -33.761174
C -39.043682 42.569093 -33.189496
C -38.540777 43.117941 -34.951602
C -37.771040 41.142044 -35.534049
H -35.439823 41.244507 -36.452454
H -35.136652 42.368180 -35.314923
H -32.740986 38.078796 -32.179911
H -40.133950 39.871133 -32.779234
H -37.227420 45.032759 -31.127489
H -38.549369 40.472365 -35.848078
12
Step 207
C -36.095819 41.050213 -36.953970
C -35.734630 41.851559 -35.153278
C -38.001389 40.999461 -33.761861
C -39.047354 42.574264 -33.188152
C -38.539441 43.125457 -34.950770
C -37.769713 41.138919 -35.531948
H -35.447570 41.240929 -36.446449
H -35.139954 42.366987 -35.314805
H -32.724412 38.061725 -32.178472
H -40.140294 39.864233 -32.780022
H -37.214457 45.047593 -31.109384
H -38.544298 40.466159 -35.842271
12
Step 208
C -36.092747 41.045958 -36.958307
C -35.732456 41.851268 -35.155113
C -38.007091 40.996126 -33.762547
C -39.051022 42.579433 -33.186814
C -38.538110 43.132975 -34.949931
C -37.768392 41.135789 -35.529845
H -35.455108 41.237483 -36.440263
H -35.143174 42.365787 -35.314801
H -32.707838 38.044654 -32.177032
H -40.146633 39.857346 -32.780807
H -37.201497 45.062422 -31.091285
H -38.539202 40.459964 -35.836497
12
Step 209
C -36.089689 41.041696 -36.962660
C -35.730290 41.850971 -35.156939
C -38.012793 40.992793 -33.763231
C -39.054687 42.584600 -33.185481
C -38.536782 43.140495 -34.949088
C -37.767076 41.132656 -35.527738
H -35.462431 41.234168 -36.433892
H -35.146301 42.364586 -35.314916
H -32.691263 38.027583 -32.175593
H -40.152966 39.850472 -32.781590
H -37.188542 45.077245 -31.073191
H -38.534079 40.453779 -35.830758
12
Step 210
C -36.086644 41.037427 -36.967030
C -35.728135 41.850668 -35.158755
C -38.018494 40.989463 -33.763914
C -39.058349 42.589766 -33.184155
C -38.535458 43.148016 -34.948239
C -37.765766 41.129520 -35.525628
H -35.469534 41.230986 -36.427333
H -35.149328 42.363393 -35.315150
H -32.674689 38.010511 -32.174154
H -40.159295 39.843610 -32.782369
H -37.175590 45.092064 -31.055102
H -38.528932 40.447605 -35.825054
12
Step 211
C -36.083612 41.033152 -36.971418
C -35.725991 41.850359 -35.160560
C -38.024195 40.986135 -33.764595
C -39.062008 42.594931 -33.182833
C -38.534138 43.155540 -34.947385
C -37.764461 41.126381 -35.523514
H -35.476413 41.227940 -36.420580
H -35.152248 42.362213 -35.315509
H -32.658115 37.993440 -32.172714
H -40.165618 39.836760 -32.783146
H -37.162641 45.106878 -31.037018
H -38.523762 40.441441 -35.819386
12
Step 212
C -36.080594 41.028868 -36.975825
C -35.723859 41.850043 -35.162353
C -38.029895 40.982809 -33.765274
C -39.065664 42.600095 -33.181517
C -38.532821 43.163066 -34.946526
C -37.763162 41.123238 -35.521398
H -35.483066 41.225034 -36.413626
H -35.155052 42.361051 -35.315995
H -32.641540 37.976369 -32.171275
H -40.171937 39.829922 -32.783920
H -37.149695 45.121688 -31.018938
H -38.518570 40.435285 -35.813756
12
Step 213
C -36.077589 41.024577 -36.980253
C -35.721739 41.849720 -35.164135
C -38.035594 40.979484 -33.765952
C -39.069317 42.605258 -33.180205
C -38.531508 43.170594 -34.945662
C -37.761867 41.120093 -35.519278
H -35.489489 41.222273 -36.406463
H -35.157735 42.359912 -35.316611
H -32.624966 37.959298 -32.169836
H -40.178251 39.823095 -32.784692
H -37.136752 45.136494 -31.000863
H -38.513359 40.429136 -35.808163
12
Step 214
C -36.074599 41.020278 -36.984701
C -35.719632 41.849388 -35.165905
C -38.041292 40.976161 -33.766628
C -39.072968 42.610421 -33.178899
C -38.530198 43.178124 -34.944794
C -37.760578 41.116944 -35.517154
H -35.495682 41.219664 -36.399082
H -35.160290 42.358800 -35.317362
H -32.608391 37.942226 -32.168396
H -40.184560 39.816278 -32.785460
H -37.123812 45.151297 -30.982791
H -38.508130 40.422994 -35.802610
12
Step 215
C -36.071622 41.015970 -36.989171
C -35.717538 41.849049 -35.167662
C -38.046988 40.972839 -33.767302
C -39.076617 42.615583 -33.177596
C -38.528892 43.185656 -34.943921
C -37.759294 41.113792 -35.515028
H -35.501646 41.217214 -36.391471
H -35.162711 42.357720 -35.318251
H -32.591817 37.925155 -32.166957
H -40.190864 39.809472 -32.786225
H -37.110875 45.166096 -30.964723
H -38.502886 40.416856 -35.797097
12
Step 216
C -36.068658 41.011653 -36.993664
C -35.715459 41.848700 -35.169407
C -38.052683 40.969519 -33.767975
C -39.080264 42.620745 -33.176298
C -38.527589 43.193190 -34.943044
C -37.758014 41.110638 -35.512897
H -35.507382 41.214931 -36.383621
H -35.164992 42.356673 -35.319283
H -32.575243 37.908084 -32.165518
H -40.197164 39.802674 -32.786987
H -37.097940 45.180892 -30.946659
H -38.497629 40.410722 -35.791625
12
Step 217
C -36.065708 41.007327 -36.998179
C -35.713394 41.848342 -35.171139
C -38.058376 40.966199 -33.768645
C -39.083910 42.625907 -33.175004
C -38.526288 43.200726 -34.942162
C -37.756739 41.107481 -35.510764
H -35.512894 41.212825 -36.375520
H -35.167129 42.355661 -35.320460
H -32.558668 37.891012 -32.164078
H -40.203460 39.795886 -32.787746
H -37.085007 45.195685 -30.928598
H -38.492361 40.404589 -35.786194
12
Step 218
C -36.062770 41.002992 -37.002718
C -35.711344 41.847973 -35.172860
C -38.064068 40.962879 -33.769314
C -39.087553 42.631070 -33.173715
C -38.524991 43.208264 -34.941276
C -37.755468 41.104322 -35.508627
H -35.518185 41.210905 -36.367156
H -35.169118 42.354685 -35.321788
H -32.542094 37.873941 -32.162639
H -40.209751 39.789106 -32.788501
H -37.072077 45.210475 -30.910540
H -38.487085 40.398456 -35.780805
12
Step 219
C -36.059845 40.998648 -37.007280
C -35.709309 41.847594 -35.174569
C -38.069758 40.959560 -33.769982
C -39.091195 42.636234 -33.172428
C -38.523697 43.215804 -34.940387
C -37.754202 41.101160 -35.506486
H -35.523262 41.209180 -36.358519
H -35.170958 42.353745 -35.323268
H -32.525520 37.856870 -32.161199
H -40.216039 39.782334 -32.789254
H -37.059148 45.225262 -30.892485
H -38.481801 40.392320 -35.775459
12
Step 220
C -36.056932 40.994293 -37.011866
C -35.707289 41.847203 -35.176267
C -38.075447 40.956241 -33.770647
C -39.094836 42.641398 -33.171146
C -38.522405 43.223346 -34.939493
C -37.752939 41.097996 -35.504342
H -35.528132 41.207660 -36.349599
H -35.172645 42.352839 -35.324903
H -32.508945 37.839799 -32.159760
H -40.222323 39.775568 -32.790004
H -37.046222 45.240047 -30.874432
H -38.476512 40.386180 -35.770157
12
Step 221
C -36.054030 40.989929 -37.016475
C -35.705284 41.846800 -35.177954
C -38.081133 40.952922 -33.771311
C -39.098476 42.646563 -33.169867
C -38.521116 43.230890 -34.938596
C -37.751681 41.094831 -35.502195
H -35.532805 41.206356 -36.340388
H -35.174180 42.351968 -35.326694
H -32.492371 37.822727 -32.158321
H -40.228602 39.768810 -32.790751
H -37.033297 45.254829 -30.856383
H -38.471218 40.380034 -35.764901
12
Step 222
C -36.051139 40.985556 -37.021108
C -35.703294 41.846384 -35.179632
C -38.086817 40.949603 -33.771973
C -39.102115 42.651730 -33.168591
C -38.519829 43.238436 -34.937695
C -37.750426 41.091663 -35.500044
H -35.537293 41.205274 -36.330881
H -35.175563 42.351127 -35.328642
H -32.475796 37.805656 -32.156881
H -40.234878 39.762057 -32.791496
H -37.020375 45.269609 -30.838336
H -38.465922 40.373880 -35.759690
12
Step 223
C -36.048258 40.981173 -37.025762
C -35.701319 41.845956 -35.181302
C -38.092499 40.946283 -33.772633
C -39.105753 42.656898 -33.167318
C -38.518545 43.245984 -34.936791
C -37.749174 41.088494 -35.497890
H -35.541609 41.204421 -36.321076
H -35.176795 42.350317 -35.330744
H -32.459222 37.788585 -32.155442
H -40.241151 39.755311 -32.792238
H -37.007454 45.284387 -30.820291
H -38.460623 40.367714 -35.754526
12
Step 224
C -36.045386 40.976780 -37.030438
C -35.699359 41.845514 -35.182963
C -38.098179 40.942963 -33.773291
C -39.109390 42.662068 -33.166048
C -38.517263 43.253533 -34.935883
C -37.747926 41.085324 -35.495732
H -35.545768 41.203803 -36.310974
H -35.177878 42.349535 -35.333000
H -32.442648 37.771513 -32.154003
H -40.247419 39.748569 -32.792977
H -36.994535 45.299162 -30.802249
H -38.455322 40.361536 -35.749409
12
Step 225
C -36.042521 40.972378 -37.035134
C -35.697414 41.845058 -35.184618
C -38.103857 40.939642 -33.773947
C -39.113027 42.667240 -33.164781
C -38.515983 43.261084 -34.934972
C -37.746681 41.082152 -35.493572
H -35.549786 41.203421 -36.300581
H -35.178813 42.348782 -35.335403
H -32.426073 37.754442 -32.152563
H -40.253684 39.741833 -32.793714
H -36.981618 45.313936 -30.784209
H -38.450019 40.355343 -35.744342
12
Step 226
C -36.039663 40.967968 -37.039848
C -35.695482 41.844589 -35.186268
C -38.109532 40.936320 -33.774602
C -39.116662 42.672414 -33.163517
C -38.514705 43.268637 -34.934058
C -37.745438 41.078980 -35.491408
H -35.553681 41.203275 -36.289905
H -35.179603 42.348059 -35.337949
H -32.409499 37.737371 -32.151124
H -40.259945 39.735102 -32.794449
H -36.968702 45.328707 -30.766171
H -38.444713 40.349132 -35.739325
12
Step 227
C -36.036812 40.963549 -37.044580
C -35.693565 41.844104 -35.187912
C -38.115204 40.932998 -33.775255
C -39.120298 42.677590 -33.162256
C -38.513429 43.276191 -34.933141
C -37.744198 41.075807 -35.489241
H -35.557471 41.203362 -36.278961
H -35.180250 42.347367 -35.340629
H -32.392924 37.720300 -32.149685
H -40.266203 39.728375 -32.795181
H -36.955788 45.343476 -30.748135
H -38.439404 40.342901 -35.734358
12
Step 228
C -36.033965 40.959122 -37.049327
C -35.691661 41.843605 -35.189552
C -38.120874 40.929674 -33.775906
C -39.123933 42.682769 -33.160997
C -38.512155 43.283747 -34.932220
C -37.742961 41.072633 -35.487071
H -35.561172 41.203677 -36.267765
H -35.180757 42.346709 -35.343435
H -32.376350 37.703228 -32.148245
H -40.272456 39.721652 -32.795912
H -36.942876 45.358243 -30.730101
H -38.434092 40.336649 -35.729444
12
Step 229
C -36.031121 40.954687 -37.054089
C -35.689770 41.843091 -35.191189
C -38.126542 40.926349 -33.776556
C -39.127567 42.687950 -33.159741
C -38.510882 43.291305 -34.931297
C -37.741727 41.069459 -35.484897
H -35.564802 41.204212 -36.256338
H -35.181125 42.346090 -35.346356
H -32.359776 37.686157 -32.146806
H -40.278706 39.714932 -32.796641
H -36.929965 45.373008 -30.712069
H -38.428776 40.330373 -35.724582
12
Step 230
C -36.028281 40.950245 -37.058862
C -35.687892 41.842563 -35.192823
C -38.132207 40.923023 -33.777204
C -39.131201 42.693134 -33.158487
C -38.509610 43.298863 -34.930371
C -37.740495 41.066285 -35.482721
H -35.568377 41.204955 -36.244704
H -35.181357 42.345516 -35.349382
H -32.343201 37.669086 -32.145367
H -40.284953 39.708216 -32.797369
H -36.917056 45.387771 -30.694039
H -38.423455 40.324071 -35.719774
12
Step 231
C -36.025443 40.945797 -37.063645
C -35.686027 41.842019 -35.194455
C -38.137869 40.919696 -33.777850
C -39.134835 42.698321 -33.157235
C -38.508340 43.306423 -34.929442
C -37.739265 41.063112 -35.480542
H -35.571913 41.205894 -36.232888
H -35.181454 42.344993 -35.352502
H -32.326627 37.652014 -32.143927
H -40.291195 39.701504 -32.798095
H -36.904148 45.402532 -30.676010
H -38.418127 40.317741 -35.715020
12
Step 232
C -36.022606 40.941342 -37.068437
C -35.684175 41.841460 -35.196085
C -38.143528 40.916367 -33.778494
C -39.138469 42.703510 -33.155985
C -38.507071 43.313985 -34.928511
C -37.738037 41.059938 -35.478359
H -35.575422 41.207019 -36.220916
H -35.181416 42.344527 -35.355708
H -32.310053 37.634943 -32.142488
H -40.297433 39.694794 -32.798819
H -36.891242 45.417292 -30.657983
H -38.412793 40.311382 -35.710321
12
Step 233
C -36.019770 40.936882 -37.073235
C -35.682335 41.840887 -35.197714
C -38.149184 40.913037 -33.779137
C -39.142103 42.708703 -33.154738
C -38.505802 43.321547 -34.927577
C -37.736812 41.056766 -35.476174
H -35.578915 41.208320 -36.208810
H -35.181245 42.344122 -35.358993
H -32.293478 37.617872 -32.141049
H -40.303668 39.688087 -32.799543
H -36.878337 45.432050 -30.639957
H -38.407452 40.304990 -35.705677
12
Step 234
C -36.016933 40.932416 -37.078039
C -35.680507 41.840298 -35.199340
C -38.154838 40.909706 -33.779778
C -39.145737 42.713898 -33.153492
C -38.504535 43.329110 -34.926640
C -37.735588 41.053593 -35.473986
H -35.582398 41.209789 -36.196590
H -35.180943 42.343780 -35.362352
H -32.276904 37.600801 -32.139609
H -40.309899 39.681383 -32.800265
H -36.865433 45.446806 -30.621933
H -38.402104 40.298565 -35.701090
12
Step 235
C -36.014097 40.927946 -37.082847
C -35.678692 41.839695 -35.200964
C -38.160489 40.906373 -33.780417
C -39.149370 42.719097 -33.152248
C -38.503268 43.336675 -34.925701
C -37.734367 41.050422 -35.471796
H -35.585875 41.211418 -36.184277
H -35.180512 42.343502 -35.365781
H -32.260329 37.583729 -32.138170
H -40.316125 39.674681 -32.800987
H -36.852531 45.461561 -30.603910
H -38.396749 40.292105 -35.696558
12
Step 236
C -36.011259 40.923471 -37.087659
C -35.676890 41.839077 -35.202586
C -38.166137 40.903038 -33.781055
C -39.153004 42.724300 -33.151006
C -38.502002 43.344240 -34.924760
C -37.733148 41.047252 -35.469603
H -35.589348 41.213198 -36.171891
H -35.179953 42.343287 -35.369279
H -32.243755 37.566658 -32.136731
H -40.322347 39.667981 -32.801708
H -36.839630 45.476315 -30.585889
H -38.391386 40.285608 -35.692081
12
Step 237
C -36.008421 40.918992 -37.092473
C -35.675099 41.838446 -35.204204
C -38.171782 40.899702 -33.781691
C -39.156638 42.729505 -33.149765
C -38.500737 43.351807 -34.923817
C -37.731932 41.044083 -35.467407
H -35.592819 41.215124 -36.159454
H -35.179270 42.343134 -35.372846
H -32.227181 37.549587 -32.135291
H -40.328565 39.661284 -32.802428
H -36.826729 45.491067 -30.567869
H -38.386017 40.279072 -35.687661
12
Step 238
C -36.005582 40.914508 -37.097287
C -35.673322 41.837802 -35.205818
C -38.177424 40.896364 -33.782326
C -39.160273 42.734714 -33.148526
C -38.499471 43.359374 -34.922872
C -37.730717 41.040916 -35.465209
H -35.596286 41.217187 -36.146989
H -35.178465 42.343039 -35.376484
H -32.210606 37.532515 -32.133852
H -40.334779 39.654588 -32.803148
H -36.813830 45.505819 -30.549849
H -38.380642 40.272495 -35.683295
12
Step 239
C -36.002741 40.910022 -37.102102
C -35.671557 41.837145 -35.207425
C -38.183064 40.893025 -33.782958
C -39.163907 42.739927 -33.147288
C -38.498206 43.366941 -34.921925
C -37.729505 41.037750 -35.463008
H -35.599746 41.219381 -36.134519
H -35.177540 42.342999 -35.380195
H -32.194032 37.515444 -32.132413
H -40.340988 39.647895 -32.803868
H -36.800932 45.520569 -30.531831
H -38.375262 40.265877 -35.678983
12
Step 240
C -35.999899 40.905532 -37.106916
C -35.669805 41.836477 -35.209026
C -38.188700 40.889684 -33.783590
C -39.167542 42.745142 -33.146051
C -38.496941 43.374510 -34.920976
C -37.728295 41.034585 -35.460805
H -35.603196 41.221700 -36.122065
H -35.176498 42.343009 -35.383985
H -32.177458 37.498373 -32.130973
H -40.347192 39.641205 -32.804588
H -36.788034 45.535318 -30.513814
H -38.369877 40.259216 -35.674725
12
Step 241
C -35.997054 40.901039 -37.111729
C -35.668067 41.835797 -35.210618
C -38.194334 40.886341 -33.784220
C -39.171177 42.750362 -33.144815
C -38.495677 43.382079 -34.920025
C -37.727087 41.031422 -35.458599
H -35.606631 41.224138 -36.109646
H -35.175342 42.343062 -35.387858
H -32.160883 37.481302 -32.129534
H -40.353391 39.634516 -32.805307
H -36.775137 45.550066 -30.495797
H -38.364489 40.252512 -35.670519
12
Step 242
C -35.994208 40.896543 -37.116539
C -35.666342 41.835106 -35.212201
C -38.199966 40.882996 -33.784849
C -39.174812 42.755584 -33.143581
C -38.494412 43.389648 -34.919072
C -37.725882 41.028262 -35.456390
H -35.610043 41.226694 -36.097282
H -35.174076 42.343152 -35.391822
H -32.144309 37.464230 -32.128095
H -40.359585 39.627830 -32.806027
H -36.762242 45.564813 -30.477782
H -38.359097 40.245764 -35.666365
12
Step 243
C -35.991360 40.892045 -37.121347
C -35.664630 41.834405 -35.213772
C -38.205595 40.879650 -33.785476
C -39.178448 42.760811 -33.142347
C -38.493147 43.397218 -34.918118
C -37.724679 41.025103 -35.454179
H -35.613427 41.229366 -36.084984
H -35.172704 42.343271 -35.395883
H -32.127734 37.447159 -32.126655
H -40.365773 39.621147 -32.806747
H -36.749347 45.579559 -30.459768
H -38.353702 40.238970 -35.662262
12
Step 244
C -35.988511 40.887545 -37.126152
C -35.662933 41.833695 -35.215331
C -38.211221 40.876302 -33.786102
C -39.182084 42.766040 -33.141115
C -38.491882 43.404788 -34.917163
C -37.723479 41.021946 -35.451966
H -35.616773 41.232159 -36.072761
H -35.171230 42.343407 -35.400051
H -32.111160 37.430088 -32.125216
H -40.371956 39.614466 -32.807468
H -36.736453 45.594304 -30.441755
H -38.348303 40.232132 -35.658209
12
Step 245
C -35.985659 40.883042 -37.130953
C -35.661249 41.832975 -35.216877
C -38.216845 40.872951 -33.786727
C -39.185721 42.771273 -33.139883
C -38.490617 43.412358 -34.916206
C -37.722282 41.018792 -35.449749
H -35.620072 41.235078 -36.060615
H -35.169659 42.343551 -35.404332
H -32.094586 37.413016 -32.123777
H -40.378133 39.607789 -32.808189
H -36.723560 45.609048 -30.423742
H -38.342900 40.225249 -35.654206
12
Step 246
C -35.982807 40.878537 -37.135752
C -35.659579 41.832246 -35.218410
C -38.222467 40.869599 -33.787351
C -39.189358 42.776509 -33.138652
C -38.489351 43.419929 -34.915248
C -37.721088 41.015639 -35.447530
H -35.623315 41.238132 -36.048545
H -35.167998 42.343692 -35.408736
H -32.078011 37.395945 -32.122337
H -40.384303 39.601115 -32.808912
H -36.710668 45.623791 -30.405731
H -38.337493 40.218321 -35.650251
12
Step 247
C -35.979953 40.874030 -37.140548
C -35.657922 41.831508 -35.219929
C -38.228087 40.866245 -33.787974
C -39.192995 42.781749 -33.137421
C -38.488085 43.427500 -34.914288
C -37.719897 41.012490 -35.445309
H -35.626490 41.241333 -36.036542
H -35.166252 42.343818 -35.413271
H -32.061437 37.378874 -32.120898
H -40.390467 39.594444 -32.809635
H -36.697777 45.638533 -30.387720
H -38.332081 40.211349 -35.646345
12
Step 248
C -35.977099 40.869521 -37.145341
C -35.656280 41.830761 -35.221434
C -38.233705 40.862888 -33.788596
C -39.196632 42.786991 -33.136191
C -38.486819 43.435071 -34.913328
C -37.718708 41.009343 -35.443084
H -35.629588 41.244694 -36.024596
H -35.164427 42.343919 -35.417941
H -32.044863 37.361803 -32.119459
H -40.396623 39.587778 -32.810360
H -36.684886 45.653274 -30.369711
H -38.326664 40.204331 -35.642485
12
Step 249
C -35.974244 40.865009 -37.150133
C -35.654651 41.830005 -35.222925
C -38.239321 40.859530 -33.789216
C -39.200270 42.792237 -33.134962
C -38.485552 43.442641 -34.912367
C -37.717523 41.006198 -35.440857
H -35.632599 41.248227 -36.012695
H -35.162530 42.343984 -35.422753
H -32.028288 37.344731 -32.118019
H -40.402773 39.581116 -32.811087
H -36.671996 45.668014 -30.351702
H -38.321241 40.197270 -35.638673
12
Step 250
C -35.971389 40.860494 -37.154925
C -35.653035 41.829240 -35.224402
C -38.244936 40.856169 -33.789835
C -39.203909 42.797485 -33.133733
C -38.484285 43.450212 -34.911405
C -37.716340 41.003057 -35.438628
H -35.635514 41.251943 -36.000823
H -35.160567 42.344005 -35.427709
H -32.011714 37.327660 -32.116580
H -40.408914 39.574459 -32.811815
H -36.659107 45.682754 -30.333693
H -38.315811 40.190165 -35.634907
12
Step 251
C -35.968535 40.855976 -37.159717
C -35.651433 41.828466 -35.225866
C -38.250549 40.852806 -33.790454
C -39.207548 42.802737 -33.132505
C -38.483017 43.457783 -34.910442
C -37.715161 40.999918 -35.436395
H -35.638324 41.255854 -35.988964
H -35.158542 42.343978 -35.432810
H -31.995139 37.310589 -32.115140
H -40.415048 39.567806 -32.812546
H -36.646218 45.697493 -30.315686
H -38.310374 40.183017 -35.631186
12
Step 252
C -35.965681 40.851455 -37.164510
C -35.649843 41.827682 -35.227316
C -38.256161 40.849440 -33.791071
C -39.211187 42.807991 -33.131276
C -38.481749 43.465353 -34.909479
C -37.713985 40.996783 -35.434160
H -35.641024 41.259966 -35.977103
H -35.156461 42.343898 -35.438057
H -31.978565 37.293518 -32.113701
H -40.421173 39.561160 -32.813278
H -36.633330 45.712232 -30.297679
H -38.304931 40.175826 -35.627511
12
Step 253
C -35.962829 40.846930 -37.169305
C -35.648266 41.826889 -35.228754
C -38.261772 40.846072 -33.791686
C -39.214828 42.813248 -33.130048
C -38.480479 43.472924 -34.908516
C -37.712811 40.993650 -35.431923
H -35.643607 41.264285 -35.965226
H -35.154328 42.343764 -35.443444
H -31.961991 37.276446 -32.112262
H -40.427290 39.554519 -32.814013
H -36.620442 45.726970 -30.279672
H -38.299480 40.168593 -35.623880
12
Step 254
C -35.959978 40.842401 -37.174104
C -35.646701 41.826088 -35.230178
C -38.267381 40.842702 -33.792301
C -39.218468 42.818507 -33.128820
C -38.479209 43.480493 -34.907552
C -37.711641 40.990521 -35.429682
H -35.646071 41.268808 -35.953325
H -35.152144 42.343579 -35.448968
H -31.945416 37.259375 -32.110822
H -40.433398 39.547884 -32.814751
H -36.607554 45.741707 -30.261666
H -38.294021 40.161319 -35.620294
12
Step 255
C -35.957129 40.837868 -37.178908
C -35.645148 41.825277 -35.231590
C -38.272990 40.839330 -33.792914
C -39.222109 42.823769 -33.127592
C -38.477939 43.488063 -34.906589
C -37.710475 40.987395 -35.427439
H -35.648417 41.273528 -35.941395
H -35.149913 42.343347 -35.454620
H -31.928842 37.242304 -32.109383
H -40.439496 39.541255 -32.815491
H -36.594667 45.756445 -30.243660
H -38.288555 40.154004 -35.616750
12
Step 256
C -35.954282 40.833331 -37.183716
C -35.643606 41.824459 -35.232990
C -38.278598 40.835955 -33.793526
C -39.225751 42.829033 -33.126364
C -38.476667 43.495632 -34.905625
C -37.709311 40.984272 -35.425193
H -35.650644 41.278434 -35.929436
H -35.147633 42.343077 -35.460393
H -31.912268 37.225232 -32.107944
H -40.445585 39.534634 -32.816235
H -36.581780 45.771182 -30.225654
H -38.283081 40.146650 -35.613249
12
Step 257
C -35.951437 40.828789 -37.188530
C -35.642075 41.823634 -35.234377
C -38.284205 40.832577 -33.794137
C -39.229393 42.834300 -33.125136
C -38.475394 43.503200 -34.904661
C -37.708151 40.981153 -35.422945
H -35.652758 41.283506 -35.917454
H -35.145305 42.342779 -35.466275
H -31.895693 37.208161 -32.106504
H -40.451664 39.528019 -32.816981
H -36.568893 45.785918 -30.207649
H -38.277599 40.139257 -35.609789
12
Step 258
C -35.948594 40.824242 -37.193350
C -35.640555 41.822803 -35.235750
C -38.289811 40.829197 -33.794747
C -39.233036 42.839569 -33.123907
C -38.474121 43.510768 -34.903698
C -37.706993 40.978037 -35.420695
H -35.654764 41.288723 -35.905456
H -35.142927 42.342463 -35.472256
H -31.879119 37.191090 -32.105065
H -40.457733 39.521412 -32.817731
H -36.556006 45.800655 -30.189643
H -38.272109 40.131828 -35.606371
12
Step 259
C -35.945753 40.819691 -37.198176
C -35.639044 41.821967 -35.237110
C -38.295417 40.825815 -33.795355
C -39.236680 42.844839 -33.122678
C -38.472846 43.518335 -34.902736
C -37.705839 40.974924 -35.418442
H -35.656670 41.294061 -35.893458
H -35.140497 42.342142 -35.478327
H -31.862544 37.174019 -32.103626
H -40.463792 39.514813 -32.818484
H -36.543120 45.815392 -30.171638
H -38.266611 40.124362 -35.602992
12
Step 260
C -35.942915 40.815135 -37.203008
C -35.637543 41.821127 -35.238457
C -38.301022 40.822430 -33.795962
C -39.240324 42.850112 -33.121449
C -38.471570 43.525901 -34.901774
C -37.704688 40.971815 -35.416187
H -35.658486 41.299493 -35.881472
H -35.138012 42.341828 -35.484475
H -31.845970 37.156947 -32.102186
H -40.469840 39.508221 -32.819241
H -36.530233 45.830128 -30.153633
H -38.261104 40.116861 -35.599653
12
Step 261
C -35.940079 40.810575 -37.207846
C -35.636052 41.820284 -35.239789
C -38.306627 40.819042 -33.796567
C -39.243969 42.855387 -33.120219
C -38.470292 43.533466 -34.900812
C -37.703540 40.968709 -35.413929
H -35.660220 41.304997 -35.869515
H -35.135472 42.341532 -35.490690
H -31.829396 37.139876 -32.100747
H -40.475877 39.501637 -32.820002
H -36.517347 45.844865 -30.135628
H -38.255587 40.109328 -35.596353
12
Step 262
C -35.937245 40.806011 -37.212688
C -35.634568 41.819438 -35.241108
C -38.312231 40.815652 -33.797171
C -39.247615 42.860663 -33.118988
C -38.469014 43.541031 -34.899851
C -37.702395 40.965607 -35.411670
H -35.661885 41.310552 -35.857597
H -35.132877 42.341263 -35.496961
H -31.812821 37.122805 -32.099308
H -40.481903 39.495062 -32.820767
H -36.504460 45.859601 -30.117622
H -38.250059 40.101763 -35.593092
12
Step 263
C -35.934413 40.801443 -37.217535
C -35.633092 41.818591 -35.242414
C -38.317835 40.812260 -33.797774
C -39.251262 42.865941 -33.117757
C -38.467733 43.548594 -34.898892
C -37.701252 40.962508 -35.409409
H -35.663490 41.316138 -35.845734
H -35.130231 42.341023 -35.503276
H -31.796247 37.105733 -32.097868
H -40.487917 39.488494 -32.821536
H -36.491574 45.874338 -30.099617
H -38.244520 40.094169 -35.589867
12
Step 264
C -35.931583 40.796872 -37.222385
C -35.631622 41.817745 -35.243709
C -38.323439 40.808866 -33.798374
C -39.254909 42.871221 -33.116525
C -38.466452 43.556156 -34.897933
C -37.700112 40.959412 -35.407146
H -35.665045 41.321735 -35.833942
H -35.127544 42.340810 -35.509620
H -31.779673 37.088662 -32.096429
H -40.493920 39.481936 -32.822309
H -36.478687 45.889075 -30.081612
H -38.238969 40.086546 -35.586681
12
Step 265
C -35.928754 40.792299 -37.227236
C -35.630157 41.816900 -35.244994
C -38.329043 40.805469 -33.798974
C -39.258558 42.876502 -33.115292
C -38.465169 43.563717 -34.896975
C -37.698975 40.956319 -35.404881
H -35.666561 41.327323 -35.822240
H -35.124822 42.340621 -35.515981
H -31.763098 37.071591 -32.094990
H -40.499911 39.475386 -32.823087
H -36.465801 45.903811 -30.063607
H -38.233406 40.078896 -35.583532
12
Step 266
C -35.925927 40.787723 -37.232088
C -35.628695 41.816057 -35.246268
C -38.334647 40.802070 -33.799571
C -39.262207 42.881785 -33.114058
C -38.463884 43.571278 -34.896019
C -37.697840 40.953230 -35.402614
H -35.668047 41.332881 -35.810649
H -35.122078 42.340452 -35.522343
H -31.746524 37.054520 -32.093550
H -40.505889 39.468845 -32.823870
H -36.452914 45.918548 -30.045602
H -38.227831 40.071219 -35.580420
12
Step 267
C -35.923101 40.783146 -37.236939
C -35.627236 41.815221 -35.247532
C -38.340250 40.798669 -33.800166
C -39.265857 42.887069 -33.112824
C -38.462597 43.578836 -34.895063
C -37.696707 40.950144 -35.400345
H -35.669511 41.338386 -35.799194
H -35.119323 42.340294 -35.528694
H -31.729949 37.037448 -32.092111
H -40.511855 39.462313 -32.824658
H -36.440027 45.933284 -30.027596
H -38.222244 40.063517 -35.577346
12
Step 268
C -35.920275 40.778568 -37.241788
C -35.625778 41.814391 -35.248787
C -38.345854 40.795266 -33.800760
C -39.269507 42.892355 -33.111588
C -38.461309 43.586394 -34.894109
C -37.695577 40.947061 -35.398075
H -35.670959 41.343815 -35.787902
H -35.116571 42.340138 -35.535019
H -31.713375 37.020377 -32.090672
H -40.517809 39.455791 -32.825450
H -36.427141 45.948021 -30.009591
H -38.216644 40.055790 -35.574311
12
Step 269
C -35.917450 40.773989 -37.246633
C -35.624319 41.813572 -35.250032
C -38.351458 40.791861 -33.801351
C -39.273159 42.897641 -33.110351
C -38.460019 43.593950 -34.893157
C -37.694449 40.943981 -35.395802
H -35.672399 41.349147 -35.776797
H -35.113834 42.339975 -35.541307
H -31.696801 37.003306 -32.089232
H -40.523749 39.449278 -32.826249
H -36.414254 45.962757 -29.991586
H -38.211033 40.048040 -35.571314
12
Step 270
C -35.914626 40.769409 -37.251475
C -35.622859 41.812764 -35.251268
C -38.357062 40.788454 -33.801941
C -39.276811 42.902929 -33.109113
C -38.458727 43.601505 -34.892206
C -37.693323 40.940904 -35.393528
H -35.673835 41.354359 -35.765904
H -35.111123 42.339795 -35.547547
H -31.680226 36.986234 -32.087793
H -40.529676 39.442774 -32.827052
H -36.401368 45.977494 -29.973581
H -38.205410 40.040268 -35.568355
12
Step 271
C -35.911802 40.764830 -37.256312
C -35.621396 41.811971 -35.252493
C -38.362666 40.785045 -33.802527
C -39.280465 42.908218 -33.107874
C -38.457432 43.609058 -34.891256
C -37.692200 40.937830 -35.391253
H -35.675267 41.359430 -35.755244
H -35.108448 42.339591 -35.553732
H -31.663652 36.969163 -32.086354
H -40.535589 39.436280 -32.827862
H -36.388481 45.992231 -29.955576
H -38.199777 40.032474 -35.565436
12
Step 272
C -35.908978 40.760250 -37.261144
C -35.619930 41.811193 -35.253707
C -38.368271 40.781635 -33.803112
C -39.284119 42.913508 -33.106634
C -38.456136 43.616611 -34.890308
C -37.691079 40.934758 -35.388975
H -35.676698 41.364347 -35.744829
H -35.105816 42.339358 -35.559853
H -31.647078 36.952092 -32.084914
H -40.541489 39.429796 -32.828677
H -36.375595 46.006967 -29.937570
H -38.194133 40.024659 -35.562555
12
Step 273
C -35.906155 40.755671 -37.265972
C -35.618460 41.810432 -35.254913
C -38.373875 40.778223 -33.803694
C -39.287774 42.918798 -33.105392
C -38.454838 43.624161 -34.889362
C -37.689962 40.931688 -35.386696
H -35.678124 41.369115 -35.734647
H -35.103230 42.339094 -35.565907
H -31.630503 36.935021 -32.083475
H -40.547375 39.423322 -32.829498
H -36.362708 46.021704 -29.919565
H -38.188480 40.016825 -35.559714
12
Step 274
C -35.903332 40.751091 -37.270796
C -35.616985 41.809685 -35.256110
C -38.379481 40.774810 -33.804273
C -39.291430 42.924090 -33.104149
C -38.453537 43.631711 -34.888418
C -37.688847 40.928621 -35.384415
H -35.679542 41.373746 -35.724680
H -35.100693 42.338798 -35.571889
H -31.613929 36.917949 -32.082036
H -40.553246 39.416857 -32.830326
H -36.349822 46.036440 -29.901560
H -38.182818 40.008971 -35.556911
12
Step 275
C -35.900510 40.746510 -37.275617
C -35.615506 41.808954 -35.257300
C -38.385087 40.771395 -33.804849
C -39.295087 42.929382 -33.102905
C -38.452234 43.639259 -34.887475
C -37.687736 40.925556 -35.382132
H -35.680949 41.378245 -35.714915
H -35.098207 42.338469 -35.577795
H -31.597354 36.900878 -32.080596
H -40.559103 39.410403 -32.831159
H -36.336935 46.051177 -29.883555
H -38.177147 40.001101 -35.554149
12
Step 276
C -35.897690 40.741929 -37.280435
C -35.614022 41.808238 -35.258483
C -38.390694 40.767979 -33.805423
C -39.298744 42.934674 -33.101659
C -38.450929 43.646805 -34.886535
C -37.686628 40.922492 -35.379848
H -35.682344 41.382618 -35.705334
H -35.095769 42.338112 -35.583625
H -31.580780 36.883807 -32.079157
H -40.564945 39.403959 -32.831999
H -36.324048 46.065913 -29.865550
H -38.171466 39.993214 -35.551425
12
Step 277
C -35.894870 40.737346 -37.285252
C -35.612533 41.807536 -35.259661
C -38.396301 40.764561 -33.805993
C -39.302402 42.939967 -33.100412
C -38.449622 43.654350 -34.885596
C -37.685524 40.919430 -35.377563
H -35.683726 41.386872 -35.695909
H -35.093374 42.337735 -35.589379
H -31.564206 36.866735 -32.077718
H -40.570773 39.397525 -32.832846
H -36.311162 46.080650 -29.847544
H -38.165775 39.985315 -35.548741
12
Step 278
C -35.892052 40.732761 -37.290069
C -35.611039 41.806847 -35.260833
C -38.401910 40.761142 -33.806560
C -39.306062 42.945261 -33.099164
C -38.448312 43.661894 -34.884659
C -37.684424 40.916369 -35.375277
H -35.685097 41.391015 -35.686615
H -35.091014 42.337348 -35.595059
H -31.547631 36.849664 -32.076278
H -40.576585 39.391101 -32.833699
H -36.298275 46.095386 -29.829539
H -38.160070 39.977404 -35.546095
12
Step 279
C -35.889236 40.728173 -37.294889
C -35.609541 41.806173 -35.262000
C -38.407520 40.757721 -33.807123
C -39.309721 42.950554 -33.097914
C -38.446999 43.669436 -34.883725
C -37.683328 40.913310 -35.372990
H -35.686464 41.395043 -35.677432
H -35.088680 42.336965 -35.600667
H -31.531057 36.832593 -32.074839
H -40.582381 39.384688 -32.834559
H -36.285389 46.110123 -29.811534
H -38.154351 39.969484 -35.543488
12
Step 280
C -35.886422 40.723582 -37.299712
C -35.608037 41.805511 -35.263160
C -38.413131 40.754300 -33.807683
C -39.313382 42.955848 -33.096663
C -38.445684 43.676977 -34.882792
C -37.682237 40.910250 -35.370703
H -35.687833 41.398951 -35.668344
H -35.086359 42.336599 -35.606209
H -31.514483 36.815522 -32.073400
H -40.588162 39.378285 -32.835426
H -36.272502 46.124860 -29.793529
H -38.148615 39.961560 -35.540918
12
Step 281
C -35.883610 40.718987 -37.304539
C -35.606529 41.804863 -35.264314
C -38.418744 40.750877 -33.808239
C -39.317044 42.961142 -33.095411
C -38.444367 43.684516 -34.881862
C -37.681151 40.907191 -35.368416
H -35.689212 41.402739 -35.659329
H -35.084037 42.336270 -35.611691
H -31.497908 36.798450 -32.071960
H -40.593927 39.371893 -32.836301
H -36.259616 46.139596 -29.775524
H -38.142859 39.953635 -35.538385
12
Step 282
C -35.880800 40.714387 -37.309373
C -35.605017 41.804227 -35.265460
C -38.424358 40.747454 -33.808791
C -39.320706 42.966436 -33.094157
C -38.443047 43.692053 -34.880933
C -37.680071 40.904131 -35.366129
H -35.690612 41.406395 -35.650382
H -35.081699 42.335992 -35.617122
H -31.481334 36.781379 -32.070521
H -40.599676 39.365512 -32.837183
H -36.246729 46.154333 -29.757518
H -38.137080 39.945711 -35.535889
12
Step 283
C -35.877993 40.709783 -37.314213
C -35.603499 41.803607 -35.266595
C -38.429973 40.744029 -33.809340
C -39.324369 42.971730 -33.092901
C -38.441725 43.699589 -34.880007
C -37.678997 40.901070 -35.363842
H -35.692050 41.409880 -35.641517
H -35.079337 42.335774 -35.622504
H -31.464759 36.764308 -32.069081
H -40.605407 39.359141 -32.838073
H -36.233842 46.169069 -29.739513
H -38.131274 39.937794 -35.533429
12
Step 284
C -35.875188 40.705174 -37.319062
C -35.601973 41.803007 -35.267715
C -38.435590 40.740604 -33.809884
C -39.328032 42.977024 -33.091644
C -38.440400 43.707124 -34.879083
C -37.677929 40.898008 -35.361556
H -35.693549 41.413134 -35.632770
H -35.076944 42.335625 -35.627843
H -31.448185 36.747236 -32.067642
H -40.611122 39.352782 -32.838971
H -36.220956 46.183806 -29.721508
H -38.125435 39.929890 -35.531005
12
Step 285
C -35.872385 40.700559 -37.323921
C -35.600439 41.802434 -35.268815
C -38.441208 40.737178 -33.810424
C -39.331697 42.982318 -33.090386
C -38.439073 43.714657 -34.878161
C -37.676869 40.894944 -35.359270
H -35.695134 41.416099 -35.624166
H -35.074513 42.335549 -35.633142
H -31.431611 36.730165 -32.066203
H -40.616820 39.346433 -32.839877
H -36.208069 46.198542 -29.703503
H -38.119556 39.922004 -35.528616
12
Step 286
C -35.869585 40.695936 -37.328794
C -35.598895 41.801891 -35.269891
C -38.446828 40.733752 -33.810960
C -39.335362 42.987611 -33.089126
C -38.437743 43.722188 -34.877242
C -37.675817 40.891877 -35.356986
H -35.696827 41.418732 -35.615717
H -35.072039 42.335552 -35.638404
H -31.415036 36.713094 -32.064763
H -40.622499 39.340096 -32.840792
H -36.195183 46.213279 -29.685497
H -38.113629 39.914145 -35.526263
12
Step 287
C -35.866788 40.691306 -37.333681
C -35.597338 41.801380 -35.270941
C -38.452450 40.730326 -33.811491
C -39.339028 42.992904 -33.087864
C -38.436411 43.729717 -34.876325
C -37.674773 40.888808 -35.354702
H -35.698650 41.421006 -35.607421
H -35.069518 42.335636 -35.643632
H -31.398462 36.696023 -32.063324
H -40.628161 39.333771 -32.841715
H -36.182296 46.228015 -29.667492
H -38.107647 39.906318 -35.523945
12
Step 288
C -35.863993 40.686668 -37.338585
C -35.595769 41.800903 -35.271965
C -38.458074 40.726899 -33.812018
C -39.342694 42.998197 -33.086601
C -38.435076 43.737244 -34.875410
C -37.673738 40.885735 -35.352419
H -35.700617 41.422915 -35.599262
H -35.066944 42.335806 -35.648833
H -31.381888 36.678951 -32.061885
H -40.633805 39.327456 -32.842646
H -36.169410 46.242752 -29.649487
H -38.101602 39.898532 -35.521662
12
Step 289
C -35.861201 40.682021 -37.343506
C -35.594189 41.800457 -35.272963
C -38.463700 40.723472 -33.812541
C -39.346361 43.003489 -33.085337
C -38.433738 43.744770 -34.874497
C -37.672713 40.882658 -35.350137
H -35.702734 41.424479 -35.591203
H -35.064305 42.336073 -35.654016
H -31.365313 36.661880 -32.060445
H -40.639431 39.321154 -32.843587
H -36.156523 46.257489 -29.631482
H -38.095486 39.890795 -35.519414
12
Step 290
C -35.858412 40.677364 -37.348445
C -35.592599 41.800038 -35.273937
C -38.469327 40.720046 -33.813059
C -39.350029 43.008780 -33.084070
C -38.432398 43.752294 -34.873587
C -37.671697 40.879577 -35.347856
H -35.704996 41.425739 -35.583205
H -35.061588 42.336445 -35.659195
H -31.348739 36.644809 -32.059006
H -40.645038 39.314863 -32.844537
H -36.143637 46.272225 -29.613477
H -38.089293 39.883111 -35.517201
12
Step 291
C -35.855626 40.672699 -37.353402
C -35.590999 41.799643 -35.274889
C -38.474956 40.716619 -33.813573
C -39.353698 43.014071 -33.082802
C -38.431056 43.759815 -34.872680
C -37.670691 40.876491 -35.345576
H -35.707401 41.426722 -35.575246
H -35.058786 42.336926 -35.664379
H -31.332164 36.627738 -32.057567
H -40.650627 39.308584 -32.845496
H -36.130750 46.286962 -29.595471
H -38.083017 39.875489 -35.515022
12
Step 292
C -35.852842 40.668025 -37.358376
C -35.589391 41.799269 -35.275820
C -38.480588 40.713193 -33.814082
C -39.357367 43.019361 -33.081533
C -38.429711 43.767335 -34.871774
C -37.669695 40.873400 -35.343297
H -35.709944 41.427453 -35.567314
H -35.055897 42.337515 -35.669576
H -31.315590 36.610666 -32.056127
H -40.656196 39.302317 -32.846464
H -36.117863 46.301698 -29.577466
H -38.076654 39.867933 -35.512877
12
Step 293
C -35.850060 40.663343 -37.363366
C -35.587775 41.798914 -35.276732
C -38.486222 40.709767 -33.814587
C -39.361038 43.024650 -33.080261
C -38.428363 43.774853 -34.870871
C -37.668711 40.870304 -35.341019
H -35.712613 41.427967 -35.559392
H -35.052917 42.338212 -35.674792
H -31.299016 36.593595 -32.054688
H -40.661747 39.296062 -32.847441
H -36.104977 46.316435 -29.559461
H -38.070198 39.860448 -35.510765
12
Step 294
C -35.847281 40.658653 -37.368369
C -35.586154 41.798573 -35.277628
C -38.491857 40.706342 -33.815088
C -39.364709 43.029938 -33.078988
C -38.427013 43.782369 -34.869971
C -37.667737 40.867202 -35.338742
H -35.715390 41.428311 -35.551460
H -35.049847 42.339011 -35.680032
H -31.282441 36.576524 -32.053249
H -40.667278 39.289820 -32.848428
H -36.092090 46.331171 -29.541456
H -38.063646 39.853039 -35.508688
12
Step 295
C -35.844505 40.653956 -37.373386
C -35.584528 41.798242 -35.278509
C -38.497495 40.702917 -33.815584
C -39.368380 43.035225 -33.077713
C -38.425660 43.789882 -34.869073
C -37.666775 40.864093 -35.336466
H -35.718255 41.428528 -35.543503
H -35.046688 42.339910 -35.685301
H -31.265867 36.559452 -32.051809
H -40.672789 39.283590 -32.849425
H -36.079204 46.345908 -29.523451
H -38.056996 39.845711 -35.506644
12
Step 296
C -35.841730 40.649253 -37.378414
C -35.582900 41.797918 -35.279378
C -38.503136 40.699492 -33.816076
C -39.372053 43.040511 -33.076437
C -38.424305 43.797394 -34.868178
C -37.665824 40.860979 -35.334191
H -35.721187 41.428663 -35.535511
H -35.043440 42.340902 -35.690604
H -31.249292 36.542381 -32.050370
H -40.678281 39.277372 -32.850430
H -36.066317 46.360645 -29.505445
H -38.050243 39.838467 -35.504634
12
Step 297
C -35.838958 40.644545 -37.383452
C -35.581271 41.797596 -35.280237
C -38.508779 40.696068 -33.816563
C -39.375726 43.045797 -33.075158
C -38.422948 43.804904 -34.867285
C -37.664886 40.857857 -35.331917
H -35.724162 41.428756 -35.527478
H -35.040106 42.341981 -35.695942
H -31.232718 36.525310 -32.048931
H -40.683754 39.271167 -32.851446
H -36.053431 46.375381 -29.487440
H -38.043387 39.831310 -35.502657
12
Step 298
C -35.836188 40.639831 -37.388497
C -35.579642 41.797274 -35.281088
C -38.514424 40.692645 -33.817046
C -39.379400 43.051081 -33.073878
C -38.421588 43.812412 -34.866395
C -37.663959 40.854728 -35.329644
H -35.727158 41.428847 -35.519402
H -35.036691 42.343141 -35.701318
H -31.216144 36.508239 -32.047491
H -40.689206 39.264975 -32.852471
H -36.040544 46.390118 -29.469435
H -38.036425 39.824243 -35.500712
12
Step 299
C -35.833421 40.635112 -37.393549
C -35.578015 41.796947 -35.281931
C -38.520072 40.689222 -33.817525
C -39.383076 43.056364 -33.072596
C -38.420225 43.819918 -34.865507
C -37.663045 40.851592 -35.327372
H -35.730150 41.428973 -35.511281
H -35.033197 42.344372 -35.706733
H -31.199569 36.491167 -32.046052
H -40.694639 39.258796 -32.853505
H -36.027658 46.404854 -29.451430
H -38.029358 39.817268 -35.498800
12
Step 300
C -35.830655 40.630390 -37.398606
C -35.576392 41.796615 -35.282769
C -38.525723 40.685800 -33.818000
C -39.386752 43.061646 -33.071312
C -38.418860 43.827423 -34.864622
C -37.662142 40.848448 -35.325101
H -35.733114 41.429171 -35.503118
H -35.029630 42.345669 -35.712188
H -31.182995 36.474096 -32.044613
H -40.700052 39.252630 -32.854549
H -36.014771 46.419591 -29.433425
H -38.022183 39.810388 -35.496921
12
Step 301
C -35.827892 40.625664 -37.403666
C -35.574774 41.796272 -35.283603
C -38.531376 40.682379 -33.818470
C -39.390429 43.066926 -33.070026
C -38.417493 43.834925 -34.863740
C -37.661253 40.845297 -35.322831
H -35.736023 41.429476 -35.494913
H -35.025996 42.347022 -35.717683
H -31.166421 36.457025 -32.043173
H -40.705446 39.246477 -32.855603
H -36.001884 46.434327 -29.415419
H -38.014902 39.803604 -35.495074
12
Step 302
C -35.825131 40.620936 -37.408729
C -35.573163 41.795918 -35.284433
C -38.537032 40.678959 -33.818936
C -39.394106 43.072206 -33.068738
C -38.416123 43.842426 -34.862860
C -37.660375 40.842137 -35.320563
H -35.738854 41.429922 -35.486668
H -35.022299 42.348424 -35.723217
H -31.149846 36.439953 -32.041734
H -40.710819 39.240337 -32.856666
H -35.988998 46.449064 -29.397414
H -38.007513 39.796918 -35.493259
12
Step 303
C -35.822373 40.616205 -37.413792
C -35.571559 41.795549 -35.285260
C -38.542690 40.675539 -33.819398
C -39.397785 43.077484 -33.067447
C -38.414751 43.849925 -34.861983
C -37.659510 40.838970 -35.318296
H -35.741580 41.430541 -35.478388
H -35.018546 42.349868 -35.728790
H -31.133272 36.422882 -32.040295
H -40.716173 39.234210 -32.857738
H -35.976111 46.463800 -29.379409
H -38.000018 39.790330 -35.491475
12
Step 304
C -35.819617 40.611472 -37.418856
C -35.569965 41.795163 -35.286086
C -38.548352 40.672120 -33.819857
C -39.401465 43.082761 -33.066155
C -38.413376 43.857422 -34.861108
C -37.658658 40.835794 -35.316029
H -35.744176 41.431365 -35.470074
H -35.014741 42.351345 -35.734400
H -31.116697 36.405811 -32.038855
H -40.721507 39.228096 -32.858819
H -35.963225 46.478537 -29.361404
H -37.992417 39.783841 -35.489723
12
Step 305
C -35.816863 40.606737 -37.423920
C -35.568382 41.794758 -35.286912
C -38.554016 40.668702 -33.820311
C -39.405146 43.088037 -33.064861
C -38.411999 43.864917 -34.860236
C -37.657818 40.832609 -35.313765
H -35.746618 41.432425 -35.461728
H -35.010890 42.352850 -35.740045
H -31.100123 36.388740 -32.037416
H -40.726822 39.221995 -32.859909
H -35.950338 46.493274 -29.343399
H -37.984711 39.777453 -35.488002
12
Step 306
C -35.814111 40.602001 -37.428982
C -35.566811 41.794331 -35.287737
C -38.559683 40.665285 -33.820761
C -39.408829 43.093311 -33.063564
C -38.410619 43.872412 -34.859366
C -37.656991 40.829416 -35.311501
H -35.748881 41.433751 -35.453349
H -35.006999 42.354376 -35.745723
H -31.083549 36.371668 -32.035977
H -40.732117 39.215907 -32.861009
H -35.937452 46.508010 -29.325393
H -37.976902 39.771164 -35.486311
12
Step 307
C -35.811362 40.597264 -37.434042
C -35.565254 41.793880 -35.288563
C -38.565353 40.661869 -33.821207
C -39.412512 43.098585 -33.062265
C -38.409238 43.879904 -34.858500
C -37.656176 40.826214 -35.309239
H -35.750940 41.435376 -35.444936
H -35.003072 42.355918 -35.751431
H -31.066974 36.354597 -32.034537
H -40.737394 39.209832 -32.862117
H -35.924565 46.522747 -29.307388
H -37.968991 39.764976 -35.484650
12
Step 308
C -35.808616 40.592525 -37.439100
C -35.563712 41.793403 -35.289392
C -38.571026 40.658454 -33.821650
C -39.416197 43.103857 -33.060964
C -38.407853 43.887395 -34.857635
C -37.655373 40.823003 -35.306979
H -35.752772 41.437325 -35.436486
H -34.999114 42.357472 -35.757167
H -31.050400 36.337526 -32.033098
H -40.742651 39.203770 -32.863234
H -35.911679 46.537483 -29.289383
H -37.960981 39.758886 -35.483019
12
Step 309
C -35.805871 40.587786 -37.444156
C -35.562187 41.792899 -35.290223
C -38.576702 40.655040 -33.822088
C -39.419883 43.109127 -33.059660
C -38.406467 43.894884 -34.856774
C -37.654581 40.819784 -35.304720
H -35.754359 41.439621 -35.427998
H -34.995129 42.359033 -35.762926
H -31.033826 36.320454 -32.031659
H -40.747890 39.197720 -32.864360
H -35.898792 46.552220 -29.271378
H -37.952873 39.752895 -35.481418
12
Step 310
C -35.803130 40.583046 -37.449209
C -35.560679 41.792366 -35.291057
C -38.582381 40.651626 -33.822523
C -39.423570 43.114396 -33.058354
C -38.405078 43.902372 -34.855915
C -37.653802 40.816556 -35.302462
H -35.755688 41.442278 -35.419471
H -34.991122 42.360599 -35.768704
H -31.017251 36.303383 -32.030219
H -40.753110 39.191684 -32.865495
H -35.885905 46.566956 -29.253373
H -37.944670 39.747001 -35.479847
12
Step 311
C -35.800390 40.578305 -37.454259
C -35.559188 41.791805 -35.291894
C -38.588064 40.648214 -33.822954
C -39.427258 43.119664 -33.057046
C -38.403686 43.909858 -34.855059
C -37.653033 40.813319 -35.300206
H -35.756758 41.445290 -35.410907
H -34.987098 42.362166 -35.774496
H -31.000677 36.286312 -32.028780
H -40.758311 39.185659 -32.866638
H -35.873019 46.581693 -29.235367
H -37.936375 39.741203 -35.478305
12
Step 312
C -35.797653 40.573564 -37.459307
C -35.557713 41.791218 -35.292735
C -38.593749 40.644804 -33.823382
C -39.430948 43.124930 -33.055735
C -38.402292 43.917343 -34.854205
C -37.652274 40.810074 -35.297951
H -35.757579 41.448632 -35.402315
H -34.983060 42.363733 -35.780298
H -30.984102 36.269241 -32.027341
H -40.763494 39.179648 -32.867789
H -35.860132 46.596429 -29.217362
H -37.927990 39.735500 -35.476792
12
Step 313
C -35.794918 40.568822 -37.464352
C -35.556253 41.790610 -35.293578
C -38.599438 40.641394 -33.823805
C -39.434638 43.130195 -33.054422
C -38.400896 43.924827 -34.853354
C -37.651526 40.806821 -35.295698
H -35.758181 41.452249 -35.393706
H -34.979015 42.365294 -35.786101
H -30.967528 36.252169 -32.025901
H -40.768658 39.173649 -32.868949
H -35.847246 46.611166 -29.199357
H -37.919517 39.729891 -35.475307
12
Step 314
C -35.792185 40.564079 -37.469394
C -35.554802 41.789986 -35.294423
C -38.605130 40.637986 -33.824225
C -39.438330 43.135458 -33.053106
C -38.399498 43.932309 -34.852506
C -37.650786 40.803560 -35.293446
H -35.758607 41.456070 -35.385097
H -34.974968 42.366845 -35.791901
H -30.950954 36.235098 -32.024462
H -40.773805 39.167662 -32.870117
H -35.834359 46.625903 -29.181352
H -37.910957 39.724377 -35.473851
12
Step 315
C -35.789455 40.559336 -37.474435
C -35.553357 41.789355 -35.295268
C -38.610825 40.634579 -33.824641
C -39.442024 43.140720 -33.051789
C -38.398097 43.939790 -34.851660
C -37.650055 40.800292 -35.291196
H -35.758902 41.460011 -35.376501
H -34.970929 42.368380 -35.797688
H -30.934379 36.218027 -32.023022
H -40.778933 39.161687 -32.871294
H -35.821473 46.640639 -29.163346
H -37.902310 39.718956 -35.472424
12
Step 316
C -35.786727 40.554592 -37.479473
C -35.551913 41.788725 -35.296114
C -38.616523 40.631173 -33.825054
C -39.445718 43.145980 -33.050468
C -38.396694 43.947269 -34.850817
C -37.649332 40.797016 -35.288947
H -35.759134 41.463969 -35.367933
H -34.966904 42.369893 -35.803456
H -30.917805 36.200955 -32.021583
H -40.784044 39.155725 -32.872478
H -35.808586 46.655376 -29.145341
H -37.893578 39.713630 -35.471024
12
Step 317
C -35.784001 40.549848 -37.484510
C -35.550463 41.788107 -35.296959
C -38.622225 40.627769 -33.825463
C -39.449414 43.151238 -33.049146
C -38.395289 43.954747 -34.849977
C -37.648617 40.793734 -35.286700
H -35.759379 41.467822 -35.359405
H -34.962900 42.371379 -35.809197
H -30.901231 36.183884 -32.020144
H -40.789136 39.149774 -32.873671
H -35.795700 46.670112 -29.127336
H -37.884761 39.708397 -35.469652
12
Step 318
C -35.781277 40.545103 -37.489545
C -35.549000 41.787510 -35.297803
C -38.627931 40.624366 -33.825868
C -39.453111 43.156494 -33.047822
C -38.393881 43.962224 -34.849139
C -37.647909 40.790444 -35.284455
H -35.759715 41.471455 -35.350924
H -34.958923 42.372833 -35.814905
H -30.884656 36.166813 -32.018704
H -40.794211 39.143836 -32.874872
H -35.782813 46.684849 -29.109331
H -37.875861 39.703258 -35.468308
12
Step 319
C -35.778555 40.540357 -37.494578
C -35.547520 41.786940 -35.298647
C -38.633639 40.620965 -33.826270
C -39.456808 43.161748 -33.046495
C -38.392471 43.969700 -34.848303
C -37.647207 40.787148 -35.282211
H -35.760200 41.474789 -35.342485
H -34.954977 42.374254 -35.820576
H -30.868082 36.149742 -32.017265
H -40.799268 39.137909 -32.876082
H -35.769926 46.699585 -29.091326
H -37.866879 39.698212 -35.466991
12
Step 320
C -35.775835 40.535611 -37.499610
C -35.546017 41.786405 -35.299492
C -38.639351 40.617565 -33.826668
C -39.460507 43.167001 -33.045166
C -38.391059 43.977174 -34.847470
C -37.646511 40.783846 -35.279968
H -35.760885 41.477755 -35.334078
H -34.951064 42.375640 -35.826205
H -30.851507 36.132670 -32.015826
H -40.804307 39.131995 -32.877299
H -35.757040 46.714322 -29.073320
H -37.857818 39.693257 -35.465702
12
Step 321
C -35.773117 40.530864 -37.504641
C -35.544488 41.785908 -35.300339
C -38.645066 40.614167 -33.827063
C -39.464207 43.172251 -33.043835
C -38.389645 43.984648 -34.846640
C -37.645822 40.780537 -35.277728
H -35.761822 41.480292 -35.325691
H -34.947187 42.376992 -35.831789
H -30.834933 36.115599 -32.014386
H -40.809329 39.126091 -32.878525
H -35.744153 46.729059 -29.055315
H -37.848681 39.688390 -35.464439
12
Step 322
C -35.770401 40.526117 -37.509670
C -35.542929 41.785455 -35.301189
C -38.650784 40.610770 -33.827455
C -39.467909 43.177500 -33.042502
C -38.388228 43.992120 -34.845812
C -37.645138 40.777221 -35.275488
H -35.763052 41.482349 -35.317304
H -34.943345 42.378310 -35.837326
H -30.818359 36.098528 -32.012947
H -40.814334 39.120200 -32.879758
H -35.731267 46.743795 -29.037310
H -37.839471 39.683612 -35.463204
12
Step 323
C -35.767687 40.521369 -37.514697
C -35.541338 41.785047 -35.302045
C -38.656506 40.607375 -33.827843
C -39.471611 43.182746 -33.041167
C -38.386809 43.999592 -34.844987
C -37.644461 40.773899 -35.273250
H -35.764604 41.483900 -35.308899
H -34.939538 42.379597 -35.842814
H -30.801784 36.081456 -32.011508
H -40.819321 39.114319 -32.881000
H -35.718380 46.758532 -29.019305
H -37.830190 39.678918 -35.461996
12
Step 324
C -35.764975 40.516620 -37.519723
C -35.539713 41.784686 -35.302908
C -38.662231 40.603982 -33.828229
C -39.475314 43.187991 -33.039830
C -38.385389 44.007062 -34.844164
C -37.643789 40.770571 -35.271014
H -35.766491 41.484938 -35.300451
H -34.935761 42.380856 -35.848254
H -30.785210 36.064385 -32.010068
H -40.824292 39.108450 -32.882249
H -35.705494 46.773268 -29.001300
H -37.820841 39.674309 -35.460815
12
Step 325
C -35.762265 40.511871 -37.524748
C -35.538055 41.784368 -35.303781
C -38.667959 40.600590 -33.828611
C -39.479018 43.193233 -33.038491
C -38.383966 44.014532 -34.843344
C -37.643123 40.767236 -35.268779
H -35.768713 41.485476 -35.291941
H -34.932010 42.382095 -35.853649
H -30.768636 36.047314 -32.008629
H -40.829246 39.102592 -32.883506
H -35.692607 46.788005 -28.983294
H -37.811426 39.669780 -35.459661
12
Step 326
C -35.759557 40.507122 -37.529771
C -35.536366 41.784092 -35.304663
C -38.673690 40.597200 -33.828990
C -39.482723 43.198473 -33.037150
C -38.382540 44.022001 -34.842526
C -37.642463 40.763894 -35.266546
H -35.771258 41.485540 -35.283348
H -34.928274 42.383322 -35.859000
H -30.752061 36.030243 -32.007190
H -40.834183 39.096745 -32.884770
H -35.679721 46.802741 -28.965289
H -37.801949 39.665332 -35.458534
12
Step 327
C -35.756851 40.502372 -37.534793
C -35.534647 41.783853 -35.305557
C -38.679424 40.593811 -33.829365
C -39.486429 43.203711 -33.035807
C -38.381113 44.029469 -34.841711
C -37.641809 40.760545 -35.264313
H -35.774096 41.485180 -35.274658
H -34.924545 42.384546 -35.864315
H -30.735487 36.013171 -32.005750
H -40.839105 39.090908 -32.886042
H -35.666834 46.817478 -28.947284
H -37.792411 39.660961 -35.457435
12
Step 328
C -35.754147 40.497621 -37.539812
C -35.532906 41.783642 -35.306463
C -38.685162 40.590424 -33.829738
C -39.490136 43.208947 -33.034462
C -38.379683 44.036936 -34.840898
C -37.641162 40.757190 -35.262082
H -35.777149 41.484500 -35.265871
H -34.920814 42.385778 -35.869596
H -30.718912 35.996100 -32.004311
H -40.844010 39.085081 -32.887321
H -35.653947 46.832214 -28.929279
H -37.782817 39.656664 -35.456362
12
Step 329
C -35.751445 40.492870 -37.544830
C -35.531152 41.783448 -35.307378
C -38.690903 40.587039 -33.830107
C -39.493844 43.214181 -33.033116
C -38.378252 44.044403 -34.840087
C -37.640522 40.753827 -35.259853
H -35.780319 41.483628 -35.256998
H -34.917071 42.387025 -35.874851
H -30.702338 35.979029 -32.002872
H -40.848901 39.079265 -32.888607
H -35.641061 46.846951 -28.911274
H -37.773169 39.652441 -35.455317
12
Step 330
C -35.748744 40.488119 -37.549845
C -35.529392 41.783260 -35.308301
C -38.696647 40.583656 -33.830474
C -39.497553 43.219412 -33.031768
C -38.376818 44.051869 -34.839279
C -37.639889 40.750456 -35.257624
H -35.783497 41.482695 -35.248063
H -34.913308 42.388295 -35.880082
H -30.685764 35.961958 -32.001432
H -40.853776 39.073459 -32.889900
H -35.628174 46.861688 -28.893268
H -37.763471 39.648287 -35.454299
12
Step 331
C -35.746046 40.483367 -37.554858
C -35.527636 41.783067 -35.309229
C -38.702394 40.580275 -33.830837
C -39.501262 43.224641 -33.030418
C -38.375382 44.059335 -34.838473
C -37.639265 40.747076 -35.255396
H -35.786576 41.481825 -35.239099
H -34.909519 42.389594 -35.885294
H -30.669189 35.944886 -31.999993
H -40.858637 39.067662 -32.891199
H -35.615288 46.876424 -28.875263
H -37.753726 39.644202 -35.453307
12
Step 332
C -35.743350 40.478615 -37.559868
C -35.525892 41.782861 -35.310159
C -38.708143 40.576895 -33.831198
C -39.504972 43.229868 -33.029066
C -38.373944 44.066800 -34.837670
C -37.638650 40.743688 -35.253169
H -35.789451 41.481131 -35.230145
H -34.905700 42.390924 -35.890491
H -30.652615 35.927815 -31.998554
H -40.863483 39.061875 -32.892505
H -35.602401 46.891161 -28.857258
H -37.743938 39.640181 -35.452342
12
Step 333
C -35.740655 40.473862 -37.564875
C -35.524165 41.782634 -35.311088
C -38.713896 40.573518 -33.831556
C -39.508684 43.235092 -33.027713
C -38.372504 44.074264 -34.836869
C -37.638045 40.740291 -35.250942
H -35.792040 41.480698 -35.221239
H -34.901845 42.392289 -35.895676
H -30.636041 35.910744 -31.997114
H -40.868315 39.056097 -32.893817
H -35.589515 46.905897 -28.839253
H -37.734107 39.636226 -35.451403
12
Step 334
C -35.737963 40.469109 -37.569879
C -35.522461 41.782382 -35.312012
C -38.719651 40.570142 -33.831912
C -39.512396 43.240314 -33.026358
C -38.371061 44.081728 -34.836070
C -37.637453 40.736883 -35.248715
H -35.794272 41.480589 -35.212419
H -34.897952 42.393691 -35.900851
H -30.619466 35.893672 -31.995675
H -40.873133 39.050329 -32.895135
H -35.576628 46.920634 -28.821248
H -37.724236 39.632334 -35.450488
12
Step 335
C -35.735273 40.464356 -37.574881
C -35.520782 41.782104 -35.312929
C -38.725409 40.566767 -33.832266
C -39.516108 43.245534 -33.025002
C -38.369616 44.089192 -34.835273
C -37.636873 40.733465 -35.246489
H -35.796118 41.480826 -35.203712
H -34.894018 42.395131 -35.906019
H -30.602892 35.876601 -31.994236
H -40.877938 39.044569 -32.896458
H -35.563742 46.935370 -28.803242
H -37.714325 39.628504 -35.449598
12
Step 336
C -35.732585 40.459602 -37.579879
C -35.519127 41.781800 -35.313837
C -38.731168 40.563395 -33.832618
C -39.519822 43.250751 -33.023644
C -38.368169 44.096656 -34.834479
C -37.636308 40.730036 -35.244262
H -35.797563 41.481412 -35.195141
H -34.890044 42.396607 -35.911180
H -30.586317 35.859530 -31.992796
H -40.882730 39.038817 -32.897788
H -35.550855 46.950107 -28.785237
H -37.704378 39.624737 -35.448732
12
Step 337
C -35.729898 40.454848 -37.584874
C -35.517495 41.781471 -35.314735
C -38.736930 40.560025 -33.832968
C -39.523536 43.255966 -33.022284
C -38.366720 44.104119 -34.833687
C -37.635757 40.726595 -35.242034
H -35.798604 41.482344 -35.186724
H -34.886034 42.398113 -35.916330
H -30.569743 35.842459 -31.991357
H -40.887509 39.033075 -32.899123
H -35.537968 46.964843 -28.767232
H -37.694396 39.621030 -35.447888
12
Step 338
C -35.727214 40.450094 -37.589866
C -35.515886 41.781119 -35.315622
C -38.742693 40.556656 -33.833317
C -39.527251 43.261179 -33.020923
C -38.365268 44.111583 -34.832898
C -37.635222 40.723143 -35.239806
H -35.799244 41.483609 -35.178475
H -34.881996 42.399639 -35.921465
H -30.553169 35.825387 -31.989918
H -40.892276 39.027340 -32.900463
H -35.525082 46.979580 -28.749227
H -37.684380 39.617383 -35.447066
12
Step 339
C -35.724532 40.445340 -37.594854
C -35.514298 41.780746 -35.316499
C -38.748458 40.553289 -33.833665
C -39.530967 43.266390 -33.019561
C -38.363814 44.119046 -34.832110
C -37.634702 40.719679 -35.237577
H -35.799496 41.485192 -35.170405
H -34.877938 42.401180 -35.926580
H -30.536594 35.808316 -31.988478
H -40.897030 39.021615 -32.901809
H -35.512195 46.994317 -28.731222
H -37.674332 39.613796 -35.446266
12
Step 340
C -35.721851 40.440585 -37.599840
C -35.512728 41.780356 -35.317365
C -38.754225 40.549923 -33.834013
C -39.534683 43.271598 -33.018197
C -38.362358 44.126509 -34.831325
C -37.634198 40.716202 -35.235346
H -35.799377 41.487069 -35.162518
H -34.873866 42.402726 -35.931670
H -30.520020 35.791245 -31.987039
H -40.901772 39.015897 -32.903159
H -35.499309 47.009053 -28.713216
H -37.664255 39.610267 -35.445486
12
Step 341
C -35.719173 40.435830 -37.604822
C -35.511174 41.779950 -35.318219
C -38.759993 40.546559 -33.834359
C -39.538401 43.276804 -33.016831
C -38.360900 44.133973 -34.830542
C -37.633709 40.712714 -35.233114
H -35.798908 41.489220 -35.154820
H -34.869790 42.404269 -35.936729
H -30.503446 35.774173 -31.985600
H -40.906502 39.010187 -32.904515
H -35.486422 47.023790 -28.695211
H -37.654150 39.606797 -35.444727
12
Step 342
C -35.716496 40.431075 -37.609801
C -35.509634 41.779532 -35.319063
C -38.765762 40.543197 -33.834705
C -39.542118 43.282007 -33.015465
C -38.359439 44.141436 -34.829762
C -37.633235 40.709214 -35.230881
H -35.798108 41.491623 -35.147311
H -34.865719 42.405798 -35.941749
H -30.486871 35.757102 -31.984160
H -40.911221 39.004486 -32.905875
H -35.473536 47.038526 -28.677206
H -37.644019 39.603384 -35.443987
12
Step 343
C -35.713820 40.426320 -37.614778
C -35.508105 41.779103 -35.319898
C -38.771532 40.539836 -33.835051
C -39.545837 43.287209 -33.014097
C -38.357976 44.148900 -34.828983
C -37.632776 40.705701 -35.228645
H -35.796995 41.494260 -35.139994
H -34.861666 42.407302 -35.946722
H -30.470297 35.740031 -31.982721
H -40.915928 38.998792 -32.907240
H -35.460649 47.053263 -28.659201
H -37.633863 39.600029 -35.443266
12
Step 344
C -35.711146 40.421564 -37.619752
C -35.506586 41.778666 -35.320723
C -38.777303 40.536477 -33.835396
C -39.549556 43.292408 -33.012727
C -38.356512 44.156364 -34.828207
C -37.632332 40.702177 -35.226408
H -35.795587 41.497116 -35.132869
H -34.857640 42.408772 -35.951640
H -30.453722 35.722960 -31.981282
H -40.920624 38.993107 -32.908610
H -35.447763 47.067999 -28.641196
H -37.623685 39.596730 -35.442564
12
Step 345
C -35.708474 40.416808 -37.624722
C -35.505074 41.778223 -35.321540
C -38.783076 40.533119 -33.835741
C -39.553276 43.297605 -33.011357
C -38.355045 44.163828 -34.827432
C -37.631902 40.698641 -35.224168
H -35.793900 41.500175 -35.125939
H -34.853653 42.410195 -35.956495
H -30.437148 35.705888 -31.979842
H -40.925309 38.987429 -32.909984
H -35.434876 47.082736 -28.623190
H -37.613485 39.593488 -35.441879
12
Step 346
C -35.705803 40.412052 -37.629690
C -35.503568 41.777776 -35.322350
C -38.788849 40.529762 -33.836087
C -39.556996 43.302799 -33.009985
C -38.353575 44.171293 -34.826660
C -37.631487 40.695094 -35.221926
H -35.791948 41.503424 -35.119203
H -34.849715 42.411564 -35.961277
H -30.420574 35.688817 -31.978403
H -40.929983 38.981759 -32.911362
H -35.421989 47.097473 -28.605185
H -37.603266 39.590303 -35.441212
12
Step 347
C -35.703134 40.407296 -37.634655
C -35.502066 41.777325 -35.323152
C -38.794623 40.526406 -33.836433
C -39.560718 43.307992 -33.008611
C -38.352104 44.178758 -34.825889
C -37.631084 40.691535 -35.219681
H -35.789747 41.506850 -35.112663
H -34.845835 42.412867 -35.965981
H -30.403999 35.671746 -31.976963
H -40.934647 38.976097 -32.912745
H -35.409103 47.112209 -28.587180
H -37.593028 39.587174 -35.440561
12
Step 348
C -35.700465 40.402540 -37.639617
C -35.500567 41.776874 -35.323948
C -38.800398 40.523052 -33.836779
C -39.564439 43.313182 -33.007237
C -38.350631 44.186223 -34.825121
C -37.630695 40.687965 -35.217433
H -35.787311 41.510442 -35.106319
H -34.842024 42.414098 -35.970598
H -30.387425 35.654674 -31.975524
H -40.939300 38.970442 -32.914132
H -35.396216 47.126946 -28.569175
H -37.582773 39.584102 -35.439926
12
Step 349
C -35.697798 40.397784 -37.644577
C -35.499069 41.776422 -35.324738
C -38.806174 40.519699 -33.837126
C -39.568162 43.318370 -33.005861
C -38.349156 44.193688 -34.824354
C -37.630318 40.684384 -35.215183
H -35.784653 41.514188 -35.100172
H -34.838288 42.415249 -35.975122
H -30.370851 35.637603 -31.974085
H -40.943942 38.964795 -32.915522
H -35.383330 47.141682 -28.551169
H -37.572502 39.581086 -35.439308
12
Step 350
C -35.695132 40.393028 -37.649533
C -35.497572 41.775971 -35.325523
C -38.811950 40.516347 -33.837473
C -39.571885 43.323557 -33.004484
C -38.347679 44.201154 -34.823590
C -37.629953 40.680793 -35.212929
H -35.781786 41.518077 -35.094222
H -34.834634 42.416314 -35.979547
H -30.354276 35.620532 -31.972645
H -40.948575 38.959156 -32.916917
H -35.370443 47.156419 -28.533164
H -37.562217 39.578126 -35.438704
12
Step 351
C -35.692467 40.388273 -37.654486
C -35.496074 41.775522 -35.326303
C -38.817727 40.512996 -33.837822
C -39.575609 43.328741 -33.003106
C -38.346200 44.208620 -34.822827
C -37.629600 40.677191 -35.210672
H -35.778723 41.522099 -35.088470
H -34.831068 42.417288 -35.983871
H -30.337702 35.603461 -31.971206
H -40.953197 38.953524 -32.918316
H -35.357557 47.171155 -28.515159
H -37.551918 39.575223 -35.438115
12
Step 352
C -35.689804 40.383517 -37.659436
C -35.494575 41.775075 -35.327078
C -38.823503 40.509647 -33.838172
C -39.579333 43.333923 -33.001727
C -38.344720 44.216086 -34.822066
C -37.629257 40.673579 -35.208411
H -35.775476 41.526244 -35.082917
H -34.827592 42.418170 -35.988090
H -30.321127 35.586389 -31.969767
H -40.957810 38.947899 -32.919718
H -35.344670 47.185892 -28.497154
H -37.541606 39.572377 -35.437540
12
Step 353
C -35.687141 40.378762 -37.664382
C -35.493075 41.774632 -35.327849
C -38.829280 40.506299 -33.838523
C -39.583058 43.339103 -33.000347
C -38.343237 44.223553 -34.821306
C -37.628925 40.669957 -35.206147
H -35.772056 41.530505 -35.077564
H -34.824210 42.418956 -35.992202
H -30.304553 35.569318 -31.968327
H -40.962413 38.942282 -32.921124
H -35.331784 47.200628 -28.479149
H -37.531283 39.569588 -35.436979
12
Step 354
C -35.684479 40.374008 -37.669326
C -35.491572 41.774192 -35.328616
C -38.835056 40.502952 -33.838876
C -39.586784 43.344282 -32.998965
C -38.341753 44.231019 -34.820549
C -37.628603 40.666325 -35.203879
H -35.768472 41.534874 -35.072413
H -34.820926 42.419642 -35.996204
H -30.287979 35.552247 -31.966888
H -40.967007 38.936672 -32.922534
H -35.318897 47.215365 -28.461143
H -37.520950 39.566855 -35.436432
12
Step 355
C -35.681818 40.369253 -37.674266
C -35.490066 41.773755 -35.329379
C -38.840832 40.499606 -33.839230
C -39.590510 43.349458 -32.997583
C -38.340266 44.238486 -34.819793
C -37.628290 40.662685 -35.201607
H -35.764733 41.539345 -35.067466
H -34.817742 42.420228 -36.000093
H -30.271404 35.535175 -31.965449
H -40.971591 38.931069 -32.923947
H -35.306010 47.230102 -28.443138
H -37.510607 39.564179 -35.435897
12
Step 356
C -35.679157 40.364500 -37.679202
C -35.488558 41.773323 -35.330138
C -38.846608 40.496262 -33.839586
C -39.594237 43.354633 -32.996199
C -38.338778 44.245953 -34.819039
C -37.627986 40.659035 -35.199331
H -35.760846 41.543914 -35.062727
H -34.814661 42.420711 -36.003867
H -30.254830 35.518104 -31.964009
H -40.976166 38.925473 -32.925364
H -35.293124 47.244838 -28.425133
H -37.500255 39.561559 -35.435375
12
Step 357
C -35.676498 40.359746 -37.684136
C -35.487048 41.772895 -35.330893
C -38.852382 40.492919 -33.839945
C -39.597965 43.359805 -32.994814
C -38.337289 44.253420 -34.818286
C -37.627690 40.655377 -35.197050
H -35.756816 41.548578 -35.058199
H -34.811685 42.421091 -36.007526
H -30.238256 35.501033 -31.962570
H -40.980732 38.919884 -32.926784
H -35.280237 47.259575 -28.407128
H -37.489895 39.558997 -35.434865
12
Step 358
C -35.673839 40.354993 -37.689067
C -35.485536 41.772471 -35.331642
C -38.858155 40.489577 -33.840305
C -39.601693 43.364976 -32.993429
C -38.335797 44.260886 -34.817535
C -37.627402 40.651710 -35.194765
H -35.752648 41.553334 -35.053886
H -34.808815 42.421365 -36.011067
H -30.221681 35.483962 -31.961131
H -40.985289 38.914303 -32.928207
H -35.267351 47.274311 -28.389123
H -37.479529 39.556491 -35.434367
12
Step 359
C -35.671181 40.350241 -37.693994
C -35.484021 41.772051 -35.332386
C -38.863927 40.486237 -33.840668
C -39.605421 43.370145 -32.992042
C -38.334304 44.268353 -34.816786
C -37.627121 40.648036 -35.192476
H -35.748344 41.558182 -35.049796
H -34.806052 42.421535 -36.014489
H -30.205107 35.466890 -31.959691
H -40.989838 38.908728 -32.929634
H -35.254464 47.289048 -28.371117
H -37.469157 39.554043 -35.433880
12
Step 360
C -35.668524 40.345489 -37.698919
C -35.482506 41.771634 -35.333124
C -38.869698 40.482899 -33.841033
C -39.609151 43.375312 -32.990654
C -38.332809 44.275819 -34.816038
C -37.626846 40.644354 -35.190182
H -35.743903 41.563124 -35.045935
H -34.803398 42.421599 -36.017792
H -30.188532 35.449819 -31.958252
H -40.994377 38.903160 -32.931064
H -35.241578 47.303784 -28.353112
H -37.458779 39.551651 -35.433404
12
Step 361
C -35.665868 40.340737 -37.703841
C -35.480990 41.771220 -35.333855
C -38.875466 40.479562 -33.841401
C -39.612881 43.380478 -32.989265
C -38.331313 44.283285 -34.815292
C -37.626578 40.640664 -35.187884
H -35.739323 41.568163 -35.042315
H -34.800853 42.421557 -36.020975
H -30.171958 35.432748 -31.956813
H -40.998908 38.897599 -32.932498
H -35.228691 47.318521 -28.335107
H -37.448398 39.549316 -35.432938
12
Step 362
C -35.663212 40.335985 -37.708761
C -35.479475 41.770808 -35.334577
C -38.881232 40.476227 -33.841772
C -39.616611 43.385641 -32.987875
C -38.329815 44.290750 -34.814547
C -37.626316 40.636968 -35.185581
H -35.734599 41.573303 -35.038946
H -34.798417 42.421410 -36.024038
H -30.155384 35.415676 -31.955373
H -41.003431 38.892045 -32.933934
H -35.215805 47.333258 -28.317102
H -37.438013 39.547038 -35.432483
12
Step 363
C -35.660556 40.331234 -37.713678
C -35.477962 41.770398 -35.335290
C -38.886996 40.472894 -33.842146
C -39.620342 43.390803 -32.986484
C -38.328315 44.298215 -34.813803
C -37.626059 40.633265 -35.183273
H -35.729725 41.578549 -35.035841
H -34.796091 42.421157 -36.026980
H -30.138809 35.398605 -31.953934
H -41.007945 38.886497 -32.935374
H -35.202918 47.347994 -28.299097
H -37.427625 39.544817 -35.432037
12
Step 364
C -35.657901 40.326482 -37.718593
C -35.476453 41.769988 -35.335992
C -38.892756 40.469563 -33.842524
C -39.624074 43.395964 -32.985093
C -38.326814 44.305679 -34.813062
C -37.625806 40.629555 -35.180961
H -35.724695 41.583908 -35.033013
H -34.793876 42.420798 -36.029800
H -30.122235 35.381534 -31.952495
H -41.012450 38.880957 -32.936817
H -35.190031 47.362731 -28.281091
H -37.417236 39.542652 -35.431600
12
Step 365
C -35.655247 40.321731 -37.723507
C -35.474947 41.769579 -35.336681
C -38.898514 40.466234 -33.842904
C -39.627806 43.401122 -32.983700
C -38.325311 44.313143 -34.812321
C -37.625559 40.625839 -35.178644
H -35.719498 41.589385 -35.030477
H -34.791774 42.420333 -36.032496
H -30.105661 35.364463 -31.951055
H -41.016947 38.875423 -32.938264
H -35.177145 47.377467 -28.263086
H -37.406847 39.540544 -35.431172
12
Step 366
C -35.652594 40.316979 -37.728419
C -35.473446 41.769169 -35.337356
C -38.904269 40.462908 -33.843288
C -39.631539 43.406279 -32.982306
C -38.323806 44.320606 -34.811582
C -37.625316 40.622117 -35.176321
H -35.714128 41.594987 -35.028248
H -34.789785 42.419759 -36.035066
H -30.089086 35.347391 -31.949616
H -41.021436 38.869896 -32.939713
H -35.164258 47.392204 -28.245081
H -37.396457 39.538492 -35.430752
12
Step 367
C -35.649940 40.312228 -37.733330
C -35.471952 41.768759 -35.338017
C -38.910019 40.459583 -33.843676
C -39.635272 43.411434 -32.980912
C -38.322300 44.328069 -34.810844
C -37.625076 40.618389 -35.173995
H -35.708575 41.600718 -35.026338
H -34.787914 42.419075 -36.037509
H -30.072512 35.330320 -31.948177
H -41.025917 38.864375 -32.941166
H -35.151372 47.406940 -28.227076
H -37.386067 39.536498 -35.430339
12
Step 368
C -35.647288 40.307476 -37.738240
C -35.470466 41.768346 -35.338660
C -38.915766 40.456260 -33.844067
C -39.639006 43.416587 -32.979517
C -38.320792 44.335531 -34.810108
C -37.624841 40.614656 -35.171663
H -35.702828 41.606586 -35.024763
H -34.786161 42.418279 -36.039822
H -30.055937 35.313249 -31.946737
H -41.030390 38.858861 -32.942621
H -35.138485 47.421677 -28.209071
H -37.375679 39.534561 -35.429932
12
Step 369
C -35.644635 40.302724 -37.743149
C -35.468989 41.767932 -35.339286
C -38.921510 40.452940 -33.844462
C -39.642741 43.421739 -32.978121
C -38.319283 44.342991 -34.809373
C -37.624608 40.610918 -35.169327
H -35.696874 41.612600 -35.023545
H -34.784531 42.417368 -36.042000
H -30.039363 35.296178 -31.945298
H -41.034854 38.853353 -32.944080
H -35.125599 47.436413 -28.191065
H -37.365290 39.532683 -35.429531
12
Step 370
C -35.641983 40.297971 -37.748058
C -35.467522 41.767515 -35.339892
C -38.927249 40.449622 -33.844861
C -39.646476 43.426890 -32.976724
C -38.317772 44.350451 -34.808640
C -37.624379 40.607175 -35.166986
H -35.690696 41.618766 -35.022703
H -34.783028 42.416337 -36.044043
H -30.022789 35.279106 -31.943859
H -41.039311 38.847852 -32.945542
H -35.112712 47.451150 -28.173060
H -37.354901 39.530863 -35.429135
12
Step 371
C -35.639331 40.293218 -37.752966
C -35.466067 41.767094 -35.340476
C -38.932984 40.446306 -33.845263
C -39.650211 43.432038 -32.975326
C -38.316260 44.357910 -34.807907
C -37.624152 40.603427 -35.164640
H -35.684284 41.625091 -35.022254
H -34.781653 42.415185 -36.045946
H -30.006214 35.262035 -31.942419
H -41.043760 38.842358 -32.947008
H -35.099825 47.465887 -28.155055
H -37.344512 39.529103 -35.428743
12
Step 372
C -35.636679 40.288465 -37.757874
C -35.464623 41.766670 -35.341038
C -38.938715 40.442992 -33.845670
C -39.653947 43.437186 -32.973928
C -38.314746 44.365368 -34.807176
C -37.623928 40.599675 -35.162290
H -35.677628 41.631578 -35.022210
H -34.780410 42.413908 -36.047709
H -29.989640 35.244964 -31.940980
H -41.048201 38.836869 -32.948476
H -35.086939 47.480623 -28.137050
H -37.334124 39.527402 -35.428356
12
Step 373
C -35.634028 40.283712 -37.762783
C -35.463194 41.766242 -35.341576
C -38.944442 40.439681 -33.846081
C -39.657683 43.442331 -32.972528
C -38.313231 44.372825 -34.806446
C -37.623707 40.595918 -35.159935
H -35.670723 41.638227 -35.022580
H -34.779298 42.412506 -36.049330
H -29.973065 35.227892 -31.939541
H -41.052634 38.831386 -32.949947
H -35.074052 47.495360 -28.119045
H -37.323737 39.525760 -35.427972
12
Step 374
C -35.631376 40.278959 -37.767691
C -35.461778 41.765811 -35.342090
C -38.950164 40.436372 -33.846495
C -39.661420 43.447475 -32.971128
C -38.311714 44.380281 -34.805718
C -37.623487 40.592157 -35.157576
H -35.663558 41.645042 -35.023378
H -34.778320 42.410977 -36.050810
H -29.956491 35.210821 -31.938101
H -41.057061 38.825910 -32.951421
H -35.061166 47.510096 -28.101039
H -37.313352 39.524175 -35.427592
12
Step 375
C -35.628724 40.274205 -37.772598
C -35.460375 41.765376 -35.342582
C -38.955883 40.433065 -33.846914
C -39.665158 43.452618 -32.969728
C -38.310196 44.387736 -34.804990
C -37.623269 40.588392 -35.155211
H -35.656146 41.652010 -35.024589
H -34.777471 42.409323 -36.052150
H -29.939917 35.193750 -31.936662
H -41.061480 38.820439 -32.952898
H -35.048279 47.524833 -28.083034
H -37.302970 39.522648 -35.427216
12
Step 376
C -35.626073 40.269452 -37.777505
C -35.458983 41.764939 -35.343055
C -38.961597 40.429760 -33.847337
C -39.668895 43.457759 -32.968326
C -38.308677 44.395190 -34.804264
C -37.623054 40.584624 -35.152843
H -35.648531 41.659097 -35.026140
H -34.776748 42.407548 -36.053357
H -29.923342 35.176679 -31.935223
H -41.065892 38.814974 -32.954377
H -35.035393 47.539569 -28.065029
H -37.292589 39.521180 -35.426844
12
Step 377
C -35.623422 40.264699 -37.782411
C -35.457595 41.764505 -35.343523
C -38.967306 40.426457 -33.847765
C -39.672634 43.462899 -32.966924
C -38.307156 44.402643 -34.803539
C -37.622840 40.580852 -35.150469
H -35.640795 41.666248 -35.027891
H -34.776140 42.405659 -36.054441
H -29.906768 35.159607 -31.933783
H -41.070297 38.809514 -32.955860
H -35.022506 47.554306 -28.047024
H -37.282209 39.519773 -35.426476
12
Step 378
C -35.620771 40.259947 -37.787315
C -35.456202 41.764079 -35.344004
C -38.973011 40.423156 -33.848198
C -39.676372 43.468038 -32.965522
C -38.305634 44.410094 -34.802815
C -37.622629 40.577075 -35.148090
H -35.633071 41.673386 -35.029608
H -34.775639 42.403665 -36.055412
H -29.890194 35.142536 -31.932344
H -41.074695 38.804060 -32.957345
H -35.009620 47.569042 -28.029019
H -37.271827 39.518430 -35.426112
12
Step 379
C -35.618120 40.255196 -37.792216
C -35.454790 41.763667 -35.344522
C -38.978710 40.419857 -33.848635
C -39.680112 43.473175 -32.964118
C -38.304110 44.417544 -34.802092
C -37.622421 40.573295 -35.145707
H -35.625510 41.680425 -35.031002
H -34.775235 42.401573 -36.056282
H -29.873619 35.125465 -31.930904
H -41.079086 38.798612 -32.958832
H -34.996733 47.583779 -28.011013
H -37.261440 39.517157 -35.425752
12
Step 380
C -35.615469 40.250446 -37.797114
C -35.453350 41.763273 -35.345099
C -38.984405 40.416561 -33.849078
C -39.683851 43.478310 -32.962714
C -38.302585 44.424993 -34.801371
C -37.622215 40.569511 -35.143318
H -35.618249 41.687303 -35.031805
H -34.774921 42.399391 -36.057060
H -29.857045 35.108393 -31.929465
H -41.083470 38.793168 -32.960323
H -34.983846 47.598516 -27.993008
H -37.251047 39.515956 -35.425396
12
Step 381
C -35.612819 40.245698 -37.802009
C -35.451873 41.762900 -35.345753
C -38.990094 40.413267 -33.849526
C -39.687591 43.483444 -32.961310
C -38.301058 44.432441 -34.800650
C -37.622013 40.565722 -35.140926
H -35.611392 41.693977 -35.031791
H -34.774691 42.397122 -36.057756
H -29.840470 35.091322 -31.928026
H -41.087848 38.787730 -32.961816
H -34.970960 47.613252 -27.975003
H -37.240645 39.514830 -35.425044
12
Step 382
C -35.610169 40.240950 -37.806901
C -35.450355 41.762548 -35.346495
C -38.995777 40.409975 -33.849979
C -39.691331 43.488577 -32.959905
C -38.299530 44.439888 -34.799930
C -37.621814 40.561929 -35.138528
H -35.604994 41.700435 -35.030822
H -34.774544 42.394768 -36.058370
H -29.823896 35.074251 -31.926586
H -41.092219 38.782298 -32.963312
H -34.958073 47.627989 -27.956998
H -37.230236 39.513778 -35.424695
12
Step 383
C -35.607519 40.236205 -37.811790
C -35.448794 41.762219 -35.347335
C -39.001455 40.406685 -33.850438
C -39.695072 43.493708 -32.958499
C -38.298000 44.447333 -34.799212
C -37.621617 40.558132 -35.136125
H -35.599092 41.706676 -35.028790
H -34.774479 42.392330 -36.058907
H -29.807322 35.057180 -31.925147
H -41.096583 38.776871 -32.964810
H -34.945187 47.642725 -27.938992
H -37.219819 39.512803 -35.424349
12
Step 384
C -35.604870 40.231460 -37.816675
C -35.447188 41.761910 -35.348275
C -39.007127 40.403397 -33.850903
C -39.698813 43.498837 -32.957093
C -38.296469 44.454777 -34.798494
C -37.621424 40.554331 -35.133718
H -35.593685 41.712712 -35.025656
H -34.774492 42.389809 -36.059372
H -29.790747 35.040108 -31.923708
H -41.100941 38.771448 -32.966311
H -34.932300 47.657462 -27.920987
H -37.209398 39.511903 -35.424006
12
Step 385
C -35.602222 40.226717 -37.821557
C -35.445544 41.761620 -35.349308
C -39.012793 40.400112 -33.851373
C -39.702554 43.503966 -32.955687
C -38.294936 44.462219 -34.797777
C -37.621233 40.550525 -35.131307
H -35.588727 41.718574 -35.021492
H -34.774582 42.387206 -36.059767
H -29.774173 35.023037 -31.922268
H -41.105292 38.766031 -32.967815
H -34.919414 47.672198 -27.902982
H -37.198972 39.511080 -35.423666
12
Step 386
C -35.599573 40.221975 -37.826436
C -35.443865 41.761345 -35.350423
C -39.018454 40.396829 -33.851848
C -39.706296 43.509092 -32.954280
C -38.293402 44.469660 -34.797062
C -37.621045 40.546715 -35.128891
H -35.584149 41.724294 -35.016428
H -34.774748 42.384520 -36.060095
H -29.757599 35.005966 -31.920829
H -41.109637 38.760619 -32.969321
H -34.906527 47.686935 -27.884977
H -37.188544 39.510333 -35.423326
12
Step 387
C -35.596926 40.217234 -37.831312
C -35.442160 41.761084 -35.351606
C -39.024108 40.393548 -33.852329
C -39.710037 43.514217 -32.952873
C -38.291867 44.477100 -34.796347
C -37.620859 40.542901 -35.126471
H -35.579871 41.729899 -35.010636
H -34.774989 42.381755 -36.060364
H -29.741024 34.988894 -31.919390
H -41.113977 38.755211 -32.970829
H -34.893641 47.701672 -27.866972
H -37.178114 39.509665 -35.422986
12
Step 388
C -35.594279 40.212494 -37.836185
C -35.440436 41.760833 -35.352834
C -39.029758 40.390270 -33.852815
C -39.713780 43.519341 -32.951465
C -38.290330 44.484539 -34.795633
C -37.620675 40.539082 -35.124047
H -35.575793 41.735417 -35.004357
H -34.775300 42.378910 -36.060580
H -29.724450 34.971823 -31.917950
H -41.118311 38.749807 -32.972339
H -34.880754 47.716408 -27.848966
H -37.167686 39.509073 -35.422643
12
Step 389
C -35.591633 40.207755 -37.841057
C -35.438701 41.760593 -35.354086
C -39.035402 40.386994 -33.853306
C -39.717522 43.524463 -32.950057
C -38.288792 44.491977 -34.794920
C -37.620493 40.535258 -35.121620
H -35.571819 41.740867 -34.997846
H -34.775681 42.375986 -36.060747
H -29.707875 34.954752 -31.916511
H -41.122641 38.744407 -32.973851
H -34.867867 47.731145 -27.830961
H -37.157262 39.508558 -35.422298
12
Step 390
C -35.588987 40.203016 -37.845926
C -35.436964 41.760362 -35.355341
C -39.041040 40.383720 -33.853802
C -39.721264 43.529584 -32.948649
C -38.287253 44.499413 -34.794208
C -37.620312 40.531430 -35.119189
H -35.567861 41.746259 -34.991357
H -34.776131 42.372982 -36.060868
H -29.691301 34.937681 -31.915072
H -41.126965 38.739011 -32.975365
H -34.854981 47.745881 -27.812956
H -37.146844 39.508121 -35.421948
12
Step 391
C -35.586342 40.198278 -37.850794
C -35.435228 41.760140 -35.356581
C -39.046674 40.380448 -33.854303
C -39.725007 43.534703 -32.947241
C -38.285713 44.506848 -34.793496
C -37.620132 40.527597 -35.116755
H -35.563863 41.751592 -34.985072
H -34.776653 42.369895 -36.060945
H -29.674727 34.920609 -31.913632
H -41.131285 38.733619 -32.976881
H -34.842094 47.760618 -27.794951
H -37.136434 39.507764 -35.421590
12
Step 392
C -35.583698 40.193540 -37.855661
C -35.433498 41.759928 -35.357796
C -39.052303 40.377179 -33.854808
C -39.728750 43.539821 -32.945832
C -38.284171 44.514283 -34.792786
C -37.619952 40.523760 -35.114319
H -35.559788 41.756857 -34.979133
H -34.777248 42.366723 -36.060980
H -29.658152 34.903538 -31.912193
H -41.135601 38.728230 -32.978398
H -34.829208 47.775354 -27.776946
H -37.126030 39.507489 -35.421225
12
Step 393
C -35.581055 40.188803 -37.860526
C -35.431774 41.759727 -35.358978
C -39.057927 40.373911 -33.855318
C -39.732493 43.544937 -32.944423
C -38.282629 44.521716 -34.792076
C -37.619772 40.519918 -35.111879
H -35.555619 41.762038 -34.973620
H -34.777913 42.363467 -36.060976
H -29.641578 34.886467 -31.910754
H -41.139912 38.722845 -32.979917
H -34.816321 47.790091 -27.758940
H -37.115634 39.507301 -35.420849
12
Step 394
C -35.578412 40.184067 -37.865389
C -35.430057 41.759539 -35.360121
C -39.063547 40.370646 -33.855832
C -39.736236 43.550052 -32.943014
C -38.281085 44.529148 -34.791367
C -37.619592 40.516071 -35.109436
H -35.551342 41.767120 -34.968622
H -34.778649 42.360125 -36.060936
H -29.625004 34.869395 -31.909314
H -41.144220 38.717463 -32.981437
H -34.803435 47.804827 -27.740935
H -37.105243 39.507203 -35.420461
12
Step 395
C -35.575770 40.179331 -37.870250
C -35.428349 41.759364 -35.361218
C -39.069161 40.367383 -33.856351
C -39.739979 43.555165 -32.941605
C -38.279541 44.536579 -34.790658
C -37.619413 40.512219 -35.106992
H -35.546948 41.772088 -34.964209
H -34.779457 42.356698 -36.060859
H -29.608429 34.852324 -31.907875
H -41.148524 38.712084 -32.982959
H -34.790548 47.819564 -27.722930
H -37.094857 39.507199 -35.420061
12
Step 396
C -35.573130 40.174596 -37.875109
C -35.426649 41.759203 -35.362267
C -39.074772 40.364121 -33.856874
C -39.743722 43.560277 -32.940196
C -38.277995 44.544009 -34.789951
C -37.619233 40.508362 -35.104544
H -35.542439 41.776926 -34.960416
H -34.780337 42.353187 -36.060743
H -29.591855 34.835253 -31.906436
H -41.152825 38.706707 -32.984481
H -34.777662 47.834301 -27.704925
H -37.084474 39.507293 -35.419647
12
Step 397
C -35.570490 40.169862 -37.879966
C -35.424956 41.759057 -35.363267
C -39.080378 40.360863 -33.857401
C -39.747465 43.565387 -32.938787
C -38.276448 44.551439 -34.789243
C -37.619053 40.504500 -35.102094
H -35.537823 41.781620 -34.957260
H -34.781287 42.349593 -36.060590
H -29.575280 34.818182 -31.904996
H -41.157123 38.701334 -32.986005
H -34.764775 47.849037 -27.686920
H -37.074095 39.507487 -35.419218
12
Step 398
C -35.567851 40.165128 -37.884820
C -35.423270 41.758927 -35.364218
C -39.085979 40.357606 -33.857933
C -39.751209 43.570496 -32.937378
C -38.274901 44.558867 -34.788537
C -37.618874 40.500632 -35.099642
H -35.533107 41.786159 -34.954747
H -34.782307 42.345918 -36.060399
H -29.558706 34.801110 -31.903557
H -41.161419 38.695963 -32.987530
H -34.751888 47.863774 -27.668914
H -37.063718 39.507784 -35.418773
12
Step 399
C -35.565213 40.160396 -37.889671
C -35.421590 41.758813 -35.365120
C -39.091576 40.354351 -33.858468
C -39.754952 43.575603 -32.935968
C -38.273353 44.566295 -34.787831
C -37.618695 40.496759 -35.097187
H -35.528305 41.790531 -34.952871
H -34.783395 42.342163 -36.060170
H -29.542132 34.784039 -31.902118
H -41.165711 38.690594 -32.989055
H -34.739002 47.878510 -27.650909
H -37.053344 39.508186 -35.418311
12
Step 400
C -35.562577 40.155665 -37.894519
C -35.419915 41.758716 -35.365976
C -39.097168 40.351098 -33.859008
C -39.758695 43.580709 -32.934559
C -38.271803 44.573721 -34.787126
C -37.618515 40.492881 -35.094730
H -35.523425 41.794729 -34.951618
H -34.784552 42.338329 -36.059901
H -29.525557 34.766968 -31.900678
H -41.170002 38.685227 -32.990582
H -34.726115 47.893247 -27.632904
H -37.042975 39.508694 -35.417832
12
Step 401
C -35.559941 40.150935 -37.899363
C -35.418244 41.758635 -35.366786
C -39.102755 40.347848 -33.859552
C -39.762439 43.585813 -32.933150
C -38.270253 44.581147 -34.786421
C -37.618336 40.488997 -35.092271
H -35.518478 41.798747 -34.950980
H -34.785779 42.334417 -36.059589
H -29.508983 34.749896 -31.899239
H -41.174291 38.679862 -32.992109
H -34.713229 47.907983 -27.614899
H -37.032611 39.509310 -35.417334
12
Step 402
C -35.557307 40.146207 -37.904204
C -35.416576 41.758572 -35.367551
C -39.108337 40.344600 -33.860100
C -39.766182 43.590916 -32.931741
C -38.268703 44.588572 -34.785717
C -37.618157 40.485108 -35.089810
H -35.513468 41.802582 -34.950955
H -34.787075 42.330426 -36.059233
H -29.492409 34.732825 -31.897800
H -41.178578 38.674499 -32.993636
H -34.700342 47.922720 -27.596894
H -37.022252 39.510034 -35.416817
12
Step 403
C -35.554674 40.141480 -37.909040
C -35.414912 41.758526 -35.368271
C -39.113915 40.341354 -33.860653
C -39.769925 43.596017 -32.930332
C -38.267151 44.595996 -34.785014
C -37.617977 40.481213 -35.087346
H -35.508396 41.806229 -34.951547
H -34.788443 42.326356 -36.058827
H -29.475834 34.715754 -31.896360
H -41.182864 38.669137 -32.995164
H -34.687456 47.937456 -27.578888
H -37.011902 39.510868 -35.416279
12
Step 404
C -35.552041 40.136754 -37.913872
C -35.413252 41.758497 -35.368945
C -39.119487 40.338110 -33.861210
C -39.773668 43.601117 -32.928923
C -38.265599 44.603420 -34.784311
C -37.617798 40.477312 -35.084881
H -35.503262 41.809688 -34.952771
H -34.789886 42.322206 -36.058367
H -29.459260 34.698683 -31.894921
H -41.187148 38.663777 -32.996692
H -34.674569 47.952193 -27.560883
H -37.001561 39.511811 -35.415720
12
Step 405
C -35.549410 40.132031 -37.918700
C -35.411595 41.758486 -35.369573
C -39.125054 40.334868 -33.861771
C -39.777411 43.606215 -32.927514
C -38.264046 44.610842 -34.783608
C -37.617618 40.473406 -35.082413
H -35.498060 41.812955 -34.954649
H -34.791406 42.317974 -36.057848
H -29.442685 34.681611 -31.893482
H -41.191432 38.658417 -32.998220
H -34.661683 47.966930 -27.542878
H -36.991232 39.512863 -35.415139
12
Step 406
C -35.546780 40.127309 -37.923524
C -35.409941 41.758493 -35.370153
C -39.130616 40.331628 -33.862337
C -39.781154 43.611312 -32.926105
C -38.262492 44.618264 -34.782906
C -37.617438 40.469494 -35.079944
H -35.492786 41.816030 -34.957201
H -34.793006 42.313657 -36.057262
H -29.426111 34.664540 -31.892042
H -41.195714 38.653059 -32.999749
H -34.648796 47.981666 -27.524873
H -36.980916 39.514025 -35.414536
12
Step 407
C -35.544151 40.122590 -37.928343
C -35.408292 41.758518 -35.370685
C -39.136172 40.328391 -33.862907
C -39.784897 43.616408 -32.924697
C -38.260937 44.625684 -34.782204
C -37.617257 40.465577 -35.077473
H -35.487434 41.818914 -34.960443
H -34.794692 42.309253 -36.056602
H -29.409537 34.647469 -31.890603
H -41.199996 38.647702 -33.001277
H -34.635909 47.996403 -27.506868
H -36.970615 39.515296 -35.413909
12
Step 408
C -35.541523 40.117872 -37.933157
C -35.406646 41.758561 -35.371168
C -39.141722 40.325155 -33.863481
C -39.788639 43.621502 -32.923288
C -38.259382 44.633104 -34.781503
C -37.617076 40.461653 -35.075001
H -35.482002 41.821608 -34.964381
H -34.796467 42.304758 -36.055862
H -29.392962 34.630398 -31.889164
H -41.204278 38.642345 -33.002806
H -34.623023 48.011139 -27.488862
H -36.960333 39.516675 -35.413258
12
Step 409
C -35.538896 40.113157 -37.937967
C -35.405004 41.758621 -35.371605
C -39.147267 40.321922 -33.864060
C -39.792382 43.626595 -32.921880
C -38.257826 44.640523 -34.780802
C -37.616894 40.457725 -35.072527
H -35.476491 41.824120 -34.968990
H -34.798336 42.300169 -36.055037
H -29.376388 34.613326 -31.887724
H -41.208559 38.636989 -33.004335
H -34.610136 48.025876 -27.470857
H -36.950073 39.518160 -35.412582
12
Step 410
C -35.536269 40.108444 -37.942772
C -35.403365 41.758700 -35.372000
C -39.152806 40.318690 -33.864644
C -39.796124 43.631687 -32.920472
C -38.256269 44.647941 -34.780102
C -37.616711 40.453790 -35.070052
H -35.470906 41.826458 -34.974225
H -34.800302 42.295481 -36.054121
H -29.359814 34.596255 -31.886285
H -41.212841 38.631633 -33.005864
H -34.597250 48.040612 -27.452852
H -36.939838 39.519751 -35.411880
12
Step 411
C -35.533644 40.103733 -37.947572
C -35.401727 41.758795 -35.372360
C -39.158338 40.315460 -33.865232
C -39.799866 43.636778 -32.919065
C -38.254711 44.655358 -34.779401
C -37.616527 40.449850 -35.067575
H -35.465261 41.828635 -34.980003
H -34.802369 42.290691 -36.053113
H -29.343239 34.579184 -31.884845
H -41.217122 38.626278 -33.007393
H -34.584363 48.055349 -27.434847
H -36.929634 39.521442 -35.411151
12
Step 412
C -35.531019 40.099025 -37.952368
C -35.400089 41.758906 -35.372696
C -39.163864 40.312233 -33.865825
C -39.803608 43.641868 -32.917657
C -38.253153 44.662774 -34.778702
C -37.616342 40.445905 -35.065098
H -35.459578 41.830671 -34.986199
H -34.804535 42.285798 -36.052018
H -29.326665 34.562112 -31.883406
H -41.221404 38.620923 -33.008921
H -34.571477 48.070086 -27.416841
H -36.919465 39.523231 -35.410394
12
Step 413
C -35.528395 40.094319 -37.957159
C -35.398449 41.759031 -35.373016
C -39.169384 40.309007 -33.866422
C -39.807350 43.646956 -32.916250
C -38.251593 44.670189 -34.778002
C -37.616155 40.441954 -35.062620
H -35.453878 41.832586 -34.992682
H -34.806798 42.280803 -36.050841
H -29.310090 34.545041 -31.881967
H -41.225685 38.615567 -33.010450
H -34.558590 48.084822 -27.398836
H -36.909338 39.525114 -35.409608
12
Step 414
C -35.525771 40.089615 -37.961946
C -35.396806 41.759168 -35.373332
C -39.174898 40.305782 -33.867024
C -39.811092 43.652044 -32.914843
C -38.250033 44.677603 -34.777303
C -37.615966 40.437998 -35.060142
H -35.448180 41.834406 -34.999324
H -34.809152 42.275710 -36.049589
H -29.293516 34.527970 -31.880527
H -41.229968 38.610212 -33.011978
H -34.545704 48.099559 -27.380831
H -36.899258 39.527087 -35.408792
12
Step 415
C -35.523149 40.084913 -37.966728
C -35.395161 41.759315 -35.373647
C -39.180404 40.302560 -33.867631
C -39.814833 43.657131 -32.913436
C -38.248472 44.685016 -34.776604
C -37.615775 40.434037 -35.057662
H -35.442487 41.836148 -35.006062
H -34.811588 42.270530 -36.048269
H -29.276942 34.510899 -31.879088
H -41.234251 38.604857 -33.013506
H -34.532817 48.114295 -27.362826
H -36.889229 39.529147 -35.407947
12
Step 416
C -35.520526 40.080213 -37.971507
C -35.393513 41.759469 -35.373969
C -39.185904 40.299339 -33.868243
C -39.818575 43.662216 -32.912029
C -38.246911 44.692427 -34.775905
C -37.615582 40.430071 -35.055182
H -35.436806 41.837841 -35.012808
H -34.814103 42.265267 -36.046880
H -29.260367 34.493827 -31.877649
H -41.238534 38.599501 -33.015033
H -34.519930 48.129032 -27.344821
H -36.879256 39.531292 -35.407070
12
Step 417
C -35.517905 40.075515 -37.976283
C -35.391864 41.759629 -35.374301
C -39.191396 40.296119 -33.868860
C -39.822316 43.667301 -32.910623
C -38.245348 44.699838 -34.775207
C -37.615386 40.426100 -35.052702
H -35.431130 41.839512 -35.019519
H -34.816696 42.259927 -36.045415
H -29.243793 34.476756 -31.876209
H -41.242819 38.594145 -33.016561
H -34.507044 48.143768 -27.326815
H -36.869340 39.533523 -35.406162
12
Step 418
C -35.515284 40.070818 -37.981055
C -35.390212 41.759790 -35.374656
C -39.196881 40.292901 -33.869482
C -39.826056 43.672385 -32.909217
C -38.243784 44.707247 -34.774509
C -37.615187 40.422124 -35.050221
H -35.425461 41.841207 -35.026059
H -34.819362 42.254517 -36.043867
H -29.227219 34.459685 -31.874770
H -41.247104 38.588788 -33.018088
H -34.494157 48.158505 -27.308810
H -36.859485 39.535839 -35.405223
12
Step 419
C -35.512664 40.066122 -37.985825
C -35.388559 41.759944 -35.375056
C -39.202359 40.289685 -33.870110
C -39.829797 43.677469 -32.907811
C -38.242220 44.714655 -34.773811
C -37.614986 40.418143 -35.047738
H -35.419811 41.843006 -35.032159
H -34.822097 42.249043 -36.042234
H -29.210644 34.442613 -31.873331
H -41.251389 38.583432 -33.019615
H -34.481271 48.173241 -27.290805
H -36.849694 39.538240 -35.404252
12
Step 420
C -35.510044 40.061427 -37.990592
C -35.386902 41.760086 -35.375524
C -39.207830 40.286469 -33.870742
C -39.833538 43.682552 -32.906405
C -38.240655 44.722061 -34.773113
C -37.614783 40.414157 -35.045255
H -35.414193 41.844994 -35.037526
H -34.824897 42.243512 -36.040515
H -29.194070 34.425542 -31.871891
H -41.255676 38.578074 -33.021141
H -34.468384 48.187978 -27.272800
H -36.839967 39.540725 -35.403250
12
Step 421
C -35.507425 40.056732 -37.995358
C -35.385241 41.760206 -35.376084
C -39.213292 40.283255 -33.871380
C -39.837278 43.687634 -32.904999
C -38.239088 44.729466 -34.772415
C -37.614577 40.410167 -35.042772
H -35.408615 41.847260 -35.041876
H -34.827754 42.237931 -36.038713
H -29.177495 34.408471 -31.870452
H -41.259963 38.572716 -33.022667
H -34.455498 48.202715 -27.254795
H -36.830308 39.543296 -35.402215
12
Step 422
C -35.504807 40.052037 -38.000122
C -35.383577 41.760297 -35.376767
C -39.218747 40.280042 -33.872023
C -39.841018 43.692715 -32.903594
C -38.237521 44.736870 -34.771718
C -37.614368 40.406171 -35.040287
H -35.403090 41.849915 -35.044827
H -34.830663 42.232305 -36.036836
H -29.160921 34.391400 -31.869013
H -41.264252 38.567358 -33.024192
H -34.442611 48.217451 -27.236789
H -36.820719 39.545948 -35.401149
12
Step 423
C -35.502190 40.047343 -38.004885
C -35.381910 41.760351 -35.377587
C -39.224195 40.276829 -33.872672
C -39.844758 43.697796 -32.902189
C -38.235953 44.744272 -34.771021
C -37.614157 40.402171 -35.037802
H -35.397613 41.853021 -35.046196
H -34.833615 42.226641 -36.034892
H -29.144347 34.374328 -31.867573
H -41.268541 38.561999 -33.025718
H -34.429725 48.232188 -27.218784
H -36.811201 39.548682 -35.400051
12
Step 424
C -35.499573 40.042648 -38.009647
C -35.380242 41.760369 -35.378544
C -39.229635 40.273618 -33.873325
C -39.848498 43.702877 -32.900784
C -38.234384 44.751673 -34.770323
C -37.613943 40.398167 -35.035316
H -35.392168 41.856592 -35.045983
H -34.836605 42.220943 -36.032890
H -29.127772 34.357257 -31.866134
H -41.272831 38.556639 -33.027242
H -34.416838 48.246924 -27.200779
H -36.801754 39.551499 -35.398920
12
Step 425
C -35.496956 40.037953 -38.014409
C -35.378574 41.760352 -35.379621
C -39.235068 40.270408 -33.873983
C -39.852237 43.707957 -32.899380
C -38.232814 44.759073 -34.769626
C -37.613726 40.394157 -35.032830
H -35.386732 41.860584 -35.044378
H -34.839629 42.215213 -36.030832
H -29.111198 34.340186 -31.864695
H -41.277123 38.551278 -33.028767
H -34.403951 48.261661 -27.182774
H -36.792379 39.554398 -35.397758
12
Step 426
C -35.494340 40.033258 -38.019169
C -35.376911 41.760309 -35.380787
C -39.240494 40.267198 -33.874646
C -39.855976 43.713037 -32.897975
C -38.231243 44.766471 -34.768929
C -37.613505 40.390143 -35.030343
H -35.381282 41.864895 -35.041754
H -34.842682 42.209455 -36.028728
H -29.094624 34.323114 -31.863255
H -41.281415 38.545917 -33.030290
H -34.391065 48.276397 -27.164769
H -36.783074 39.557382 -35.396562
12
Step 427
C -35.491725 40.028563 -38.023928
C -35.375252 41.760249 -35.382010
C -39.245914 40.263989 -33.875313
C -39.859715 43.718117 -32.896571
C -38.229671 44.773867 -34.768233
C -37.613281 40.386125 -35.027856
H -35.375810 41.869411 -35.038481
H -34.845757 42.203671 -36.026589
H -29.078049 34.306043 -31.861816
H -41.285708 38.540554 -33.031814
H -34.378178 48.291134 -27.146763
H -36.773838 39.560453 -35.395335
12
Step 428
C -35.489109 40.023869 -38.028685
C -35.373598 41.760183 -35.383256
C -39.251327 40.260781 -33.875985
C -39.863454 43.723197 -32.895167
C -38.228099 44.781263 -34.767536
C -37.613054 40.382101 -35.025369
H -35.370318 41.874002 -35.034949
H -34.848845 42.197866 -36.024432
H -29.061475 34.288972 -31.860377
H -41.290003 38.535191 -33.033337
H -34.365292 48.305870 -27.128758
H -36.764670 39.563612 -35.394074
12
Step 429
C -35.486494 40.019176 -38.033441
C -35.371950 41.760117 -35.384502
C -39.256735 40.257574 -33.876660
C -39.867193 43.728276 -32.893764
C -38.226525 44.788657 -34.766839
C -37.612822 40.378073 -35.022883
H -35.364818 41.878571 -35.031417
H -34.851937 42.192044 -36.022277
H -29.044900 34.271901 -31.858937
H -41.294299 38.529827 -33.034859
H -34.352405 48.320607 -27.110753
H -36.755570 39.566858 -35.392781
12
Step 430
C -35.483879 40.014483 -38.038196
C -35.370306 41.760057 -35.385734
C -39.262137 40.254367 -33.877339
C -39.870931 43.733355 -32.892360
C -38.224951 44.796049 -34.766142
C -37.612586 40.374041 -35.020396
H -35.359324 41.883060 -35.028014
H -34.855021 42.186208 -36.020147
H -29.028326 34.254829 -31.857498
H -41.298596 38.524461 -33.036381
H -34.339519 48.335344 -27.092748
H -36.746537 39.570195 -35.391453
12
Step 431
C -35.481265 40.009790 -38.042950
C -35.368668 41.760004 -35.386946
C -39.267533 40.251161 -33.878021
C -39.874669 43.738434 -32.890957
C -38.223377 44.803441 -34.765446
C -37.612346 40.370004 -35.017910
H -35.353852 41.887426 -35.024812
H -34.858085 42.180366 -36.018069
H -29.011752 34.237758 -31.856059
H -41.302895 38.519095 -33.037902
H -34.326632 48.350080 -27.074743
H -36.737568 39.573625 -35.390091
12
Step 432
C -35.478650 40.005098 -38.047703
C -35.367035 41.759960 -35.388132
C -39.272925 40.247955 -33.878707
C -39.878407 43.743513 -32.889554
C -38.221801 44.810831 -34.764749
C -37.612100 40.365963 -35.015425
H -35.348421 41.891652 -35.021810
H -34.861111 42.174527 -36.016074
H -28.995177 34.220687 -31.854619
H -41.307194 38.513728 -33.039423
H -34.313746 48.364817 -27.056737
H -36.728663 39.577150 -35.388695
12
Step 433
C -35.476035 40.000407 -38.052456
C -35.365408 41.759924 -35.389290
C -39.278312 40.244750 -33.879395
C -39.882144 43.748592 -32.888152
C -38.220226 44.818220 -34.764052
C -37.611849 40.361918 -35.012940
H -35.343046 41.895713 -35.019032
H -34.864079 42.168702 -36.014197
H -28.978603 34.203615 -31.853180
H -41.311495 38.508359 -33.040944
H -34.300859 48.379553 -27.038732
H -36.719818 39.580775 -35.387263
12
Step 434
C -35.473420 39.995715 -38.057209
C -35.363787 41.759900 -35.390403
C -39.283694 40.241546 -33.880087
C -39.885882 43.753671 -32.886749
C -38.218649 44.825608 -34.763355
C -37.611593 40.357868 -35.010456
H -35.337746 41.899554 -35.016619
H -34.866962 42.162913 -36.012475
H -28.962029 34.186544 -31.851741
H -41.315797 38.502990 -33.042464
H -34.287972 48.394290 -27.020727
H -36.711030 39.584505 -35.385798
12
Step 435
C -35.470806 39.991024 -38.061961
C -35.362174 41.759890 -35.391461
C -39.289071 40.238342 -33.880782
C -39.889619 43.758750 -32.885347
C -38.217072 44.832994 -34.762659
C -37.611333 40.353814 -35.007973
H -35.332538 41.903131 -35.014665
H -34.869735 42.157177 -36.010944
H -28.945454 34.169473 -31.850301
H -41.320100 38.497619 -33.043983
H -34.275086 48.409026 -27.002722
H -36.702297 39.588341 -35.384300
12
Step 436
C -35.468191 39.986333 -38.066713
C -35.360567 41.759895 -35.392453
C -39.294445 40.235138 -33.881479
C -39.893355 43.763828 -32.883946
C -38.215494 44.840380 -34.761962
C -37.611067 40.349756 -35.005489
H -35.327443 41.906401 -35.013271
H -34.872378 42.151509 -36.009634
H -28.928880 34.152402 -31.848862
H -41.324404 38.492248 -33.045503
H -34.262199 48.423763 -26.984717
H -36.693617 39.592287 -35.382770
12
Step 437
C -35.465576 39.981642 -38.071466
C -35.358968 41.759918 -35.393373
C -39.299814 40.231935 -33.882179
C -39.897092 43.768907 -32.882544
C -38.213916 44.847764 -34.761265
C -37.610797 40.345694 -35.003007
H -35.322474 41.909343 -35.012481
H -34.874876 42.145918 -36.008563
H -28.912305 34.135330 -31.847423
H -41.328709 38.486875 -33.047022
H -34.249313 48.438500 -26.966711
H -36.684988 39.596344 -35.381210
12
Step 438
C -35.462961 39.976950 -38.076219
C -35.357374 41.759960 -35.394214
C -39.305180 40.228732 -33.882881
C -39.900828 43.773986 -32.881143
C -38.212338 44.855147 -34.760568
C -37.610522 40.341626 -35.000524
H -35.317652 41.911921 -35.012366
H -34.877218 42.140412 -36.007751
H -28.895731 34.118259 -31.845983
H -41.333015 38.481502 -33.048540
H -34.236426 48.453236 -26.948706
H -36.676409 39.600514 -35.379621
12
Step 439
C -35.460346 39.972259 -38.080973
C -35.355785 41.760024 -35.394969
C -39.310542 40.225530 -33.883586
C -39.904564 43.779065 -32.879742
C -38.210758 44.862529 -34.759871
C -37.610242 40.337555 -34.998042
H -35.312997 41.914106 -35.012980
H -34.879396 42.134997 -36.007212
H -28.879157 34.101188 -31.844544
H -41.337322 38.476128 -33.050059
H -34.223540 48.467973 -26.930701
H -36.667879 39.604796 -35.378004
12
Step 440
C -35.457731 39.967567 -38.085727
C -35.354199 41.760112 -35.395635
C -39.315900 40.222327 -33.884293
C -39.908299 43.784143 -32.878342
C -38.209179 44.869909 -34.759173
C -37.609957 40.333478 -34.995560
H -35.308526 41.915877 -35.014357
H -34.881403 42.129674 -36.006961
H -28.862582 34.084116 -31.843104
H -41.341629 38.470753 -33.051577
H -34.210653 48.482709 -26.912696
H -36.659400 39.609189 -35.376360
12
Step 441
C -35.455116 39.962874 -38.090483
C -35.352616 41.760224 -35.396211
C -39.321256 40.219126 -33.885002
C -39.912034 43.789222 -32.876942
C -38.207598 44.877288 -34.758476
C -37.609668 40.329398 -34.993079
H -35.304254 41.917218 -35.016505
H -34.883237 42.124444 -36.007005
H -28.846008 34.067045 -31.841665
H -41.345938 38.465377 -33.053094
H -34.197767 48.497446 -26.894691
H -36.650971 39.613691 -35.374688
12
Step 442
C -35.452501 39.958181 -38.095239
C -35.351035 41.760362 -35.396696
C -39.326608 40.215924 -33.885713
C -39.915769 43.794301 -32.875542
C -38.206017 44.884666 -34.757778
C -37.609374 40.325313 -34.990598
H -35.300195 41.918127 -35.019413
H -34.884900 42.119303 -36.007353
H -28.829434 34.049974 -31.840226
H -41.350246 38.460000 -33.054612
H -34.184880 48.512182 -26.876685
H -36.642595 39.618298 -35.372991
12
Step 443
C -35.449885 39.953488 -38.099997
C -35.349453 41.760527 -35.397092
C -39.331957 40.212723 -33.886426
C -39.919504 43.799380 -32.874143
C -38.204436 44.892043 -34.757080
C -37.609075 40.321224 -34.988117
H -35.296356 41.918604 -35.023048
H -34.886395 42.114246 -36.008009
H -28.812859 34.032903 -31.838786
H -41.354556 38.454623 -33.056129
H -34.171993 48.526919 -26.858680
H -36.634273 39.623008 -35.371267
12
Step 444
C -35.447270 39.948793 -38.104756
C -35.347870 41.760717 -35.397404
C -39.337304 40.209523 -33.887140
C -39.923238 43.804458 -32.872744
C -38.202854 44.899419 -34.756382
C -37.608770 40.317131 -34.985636
H -35.292742 41.918662 -35.027363
H -34.887726 42.109266 -36.008973
H -28.796285 34.015831 -31.837347
H -41.358866 38.449245 -33.057646
H -34.159107 48.541655 -26.840675
H -36.626007 39.627816 -35.369517
12
Step 445
C -35.444654 39.944099 -38.109516
C -35.346285 41.760934 -35.397637
C -39.342648 40.206323 -33.887856
C -39.926971 43.809537 -32.871345
C -38.201271 44.906793 -34.755684
C -37.608460 40.313033 -34.983157
H -35.289357 41.918312 -35.032306
H -34.888902 42.104356 -36.010243
H -28.779710 33.998760 -31.835908
H -41.363176 38.443866 -33.059163
H -34.146220 48.556392 -26.822670
H -36.617799 39.632719 -35.367742
12
Step 446
C -35.442039 39.939403 -38.114278
C -35.344698 41.761176 -35.397795
C -39.347990 40.203123 -33.888574
C -39.930705 43.814616 -32.869947
C -38.199688 44.914166 -34.754986
C -37.608144 40.308932 -34.980678
H -35.286200 41.917574 -35.037809
H -34.889935 42.099505 -36.011813
H -28.763136 33.981689 -31.834468
H -41.367486 38.438487 -33.060680
H -34.133334 48.571129 -26.804664
H -36.609653 39.637713 -35.365939
12
Step 447
C -35.439423 39.934708 -38.119041
C -35.343108 41.761441 -35.397888
C -39.353329 40.199923 -33.889293
C -39.934438 43.819694 -32.868549
C -38.198105 44.921538 -34.754287
C -37.607821 40.304828 -34.978200
H -35.283264 41.916481 -35.043773
H -34.890836 42.094702 -36.013674
H -28.746562 33.964617 -31.833029
H -41.371797 38.433108 -33.062197
H -34.120447 48.585865 -26.786659
H -36.601571 39.642792 -35.364109
12
Step 448
C -35.436807 39.930011 -38.123805
C -35.341515 41.761727 -35.397929
C -39.358667 40.196724 -33.890013
C -39.938170 43.824773 -32.867152
C -38.196521 44.928908 -34.753589
C -37.607491 40.300720 -34.975724
H -35.280535 41.915081 -35.050063
H -34.891617 42.089939 -36.015813
H -28.729987 33.947546 -31.831590
H -41.376107 38.427728 -33.063714
H -34.107561 48.600602 -26.768654
H -36.593554 39.647953 -35.362250
12
Step 449
C -35.434190 39.925315 -38.128570
C -35.339919 41.762032 -35.397923
C -39.364002 40.193525 -33.890734
C -39.941902 43.829851 -32.865756
C -38.194936 44.936278 -34.752890
C -37.607154 40.296609 -34.973249
H -35.278006 41.913395 -35.056643
H -34.892289 42.085207 -36.018215
H -28.713413 33.930475 -31.830150
H -41.380418 38.422348 -33.065230
H -34.094674 48.615338 -26.750649
H -36.585605 39.653189 -35.360364
12
Step 450
C -35.431574 39.920618 -38.133336
C -35.338320 41.762353 -35.397876
C -39.369336 40.190327 -33.891456
C -39.945634 43.834930 -32.864359
C -38.193351 44.943646 -34.752191
C -37.606810 40.292495 -34.970775
H -35.275661 41.911461 -35.063428
H -34.892857 42.080506 -36.020873
H -28.696838 33.913404 -31.828711
H -41.384729 38.416968 -33.066747
H -34.081788 48.630075 -26.732644
H -36.577726 39.658495 -35.358450
12
Step 451
C -35.428957 39.915920 -38.138103
C -35.336721 41.762684 -35.397804
C -39.374668 40.187130 -33.892180
C -39.949365 43.840008 -32.862964
C -38.191766 44.951013 -34.751491
C -37.606458 40.288378 -34.968303
H -35.273467 41.909358 -35.070246
H -34.893318 42.075838 -36.023788
H -28.680264 33.896332 -31.827272
H -41.389039 38.411587 -33.068264
H -34.068901 48.644811 -26.714638
H -36.569920 39.663863 -35.356510
12
Step 452
C -35.426340 39.911223 -38.142870
C -35.335126 41.763017 -35.397728
C -39.379999 40.183932 -33.892904
C -39.953095 43.845086 -32.861569
C -38.190180 44.958379 -34.750791
C -37.606100 40.284259 -34.965832
H -35.271380 41.907201 -35.076835
H -34.893672 42.071206 -36.026964
H -28.663690 33.879261 -31.825832
H -41.393350 38.406207 -33.069781
H -34.056014 48.659548 -26.696633
H -36.562189 39.669286 -35.354544
12
Step 453
C -35.423724 39.906526 -38.147638
C -35.333539 41.763337 -35.397676
C -39.385328 40.180736 -33.893629
C -39.956826 43.850164 -32.860174
C -38.188594 44.965744 -34.750092
C -37.605734 40.280137 -34.963363
H -35.269337 41.905139 -35.082848
H -34.893914 42.066613 -36.030409
H -28.647115 33.862190 -31.824393
H -41.397660 38.400825 -33.071298
H -34.043128 48.674284 -26.678628
H -36.554534 39.674757 -35.352553
12
Step 454
C -35.421107 39.901828 -38.152406
C -35.331965 41.763633 -35.397679
C -39.390656 40.177540 -33.894355
C -39.960555 43.855242 -32.858780
C -38.187008 44.973108 -34.749391
C -37.605362 40.276012 -34.960895
H -35.267280 41.903322 -35.087930
H -34.894042 42.062062 -36.034135
H -28.630541 33.845119 -31.822954
H -41.401970 38.395444 -33.072815
H -34.030241 48.689021 -26.660623
H -36.546955 39.680272 -35.350538
12
Step 455
C -35.418490 39.897130 -38.157175
C -35.330410 41.763894 -35.397761
C -39.395983 40.174344 -33.895081
C -39.964284 43.860320 -32.857386
C -38.185422 44.980471 -34.748691
C -37.604982 40.271885 -34.958429
H -35.265155 41.901882 -35.091761
H -34.894058 42.057551 -36.038144
H -28.613967 33.828047 -31.821514
H -41.406281 38.390062 -33.074331
H -34.017355 48.703758 -26.642618
H -36.539452 39.685830 -35.348498
12
Step 456
C -35.415873 39.892431 -38.161945
C -35.328876 41.764113 -35.397942
C -39.401309 40.171149 -33.895808
C -39.968013 43.865397 -32.855993
C -38.183835 44.987833 -34.747990
C -37.604595 40.267755 -34.955965
H -35.262920 41.900911 -35.094125
H -34.893968 42.053074 -36.042432
H -28.597392 33.810976 -31.820075
H -41.410591 38.384680 -33.075848
H -34.004468 48.718494 -26.624612
H -36.532022 39.691426 -35.346436
12
Step 457
C -35.413256 39.887732 -38.166716
C -35.327364 41.764285 -35.398233
C -39.406634 40.167955 -33.896535
C -39.971741 43.870474 -32.854601
C -38.182248 44.995193 -34.747289
C -37.604201 40.263624 -34.953502
H -35.260548 41.900466 -35.094884
H -34.893777 42.048628 -36.046994
H -28.580818 33.793905 -31.818636
H -41.414901 38.379298 -33.077365
H -33.991582 48.733231 -26.606607
H -36.524667 39.697061 -35.344350
12
Step 458
C -35.410639 39.883031 -38.171488
C -35.325876 41.764410 -35.398637
C -39.411958 40.164761 -33.897263
C -39.975469 43.875551 -32.853209
C -38.180660 45.002553 -34.746588
C -37.603798 40.259491 -34.951040
H -35.258027 41.900562 -35.094011
H -34.893490 42.044210 -36.051825
H -28.564243 33.776833 -31.817196
H -41.419211 38.373915 -33.078882
H -33.978695 48.747967 -26.588602
H -36.517385 39.702731 -35.342243
12
Step 459
C -35.408022 39.878331 -38.176262
C -35.324409 41.764491 -35.399147
C -39.417282 40.161568 -33.897991
C -39.979196 43.880628 -32.851818
C -38.179073 45.009912 -34.745886
C -37.603389 40.255356 -34.948581
H -35.255368 41.901162 -35.091597
H -34.893110 42.039815 -36.056920
H -28.547669 33.759762 -31.815757
H -41.423520 38.368533 -33.080399
H -33.965808 48.762704 -26.570597
H -36.510175 39.708434 -35.340114
12
Step 460
C -35.405405 39.873630 -38.181036
C -35.322963 41.764534 -35.399748
C -39.422606 40.158375 -33.898718
C -39.982923 43.885705 -32.850427
C -38.177485 45.017269 -34.745185
C -37.602972 40.251220 -34.946122
H -35.252596 41.902194 -35.087827
H -34.892640 42.035442 -36.062273
H -28.531095 33.742691 -31.814318
H -41.427829 38.363150 -33.081917
H -33.952922 48.777440 -26.552592
H -36.503038 39.714168 -35.337963
12
Step 461
C -35.402788 39.868928 -38.185811
C -35.321532 41.764548 -35.400417
C -39.427930 40.155184 -33.899446
C -39.986649 43.890781 -32.849037
C -38.175897 45.024626 -34.744482
C -37.602547 40.247081 -34.943666
H -35.249754 41.903550 -35.082973
H -34.892080 42.031088 -36.067879
H -28.514520 33.725620 -31.812878
H -41.432138 38.357768 -33.083434
H -33.940035 48.792177 -26.534586
H -36.495973 39.719932 -35.335793
12
Step 462
C -35.400171 39.864227 -38.190586
C -35.320112 41.764544 -35.401128
C -39.433254 40.151992 -33.900174
C -39.990374 43.895857 -32.847648
C -38.174309 45.031981 -34.743780
C -37.602115 40.242941 -34.941212
H -35.246897 41.905097 -35.077377
H -34.891439 42.026747 -36.073720
H -28.497946 33.708548 -31.811439
H -41.436446 38.352385 -33.084952
H -33.927149 48.806914 -26.516581
H -36.488978 39.725725 -35.333603
12
Step 463
C -35.397553 39.859526 -38.195361
C -35.318697 41.764535 -35.401856
C -39.438578 40.148802 -33.900902
C -39.994099 43.900933 -32.846259
C -38.172721 45.039336 -34.743077
C -37.601675 40.238800 -34.938759
H -35.244078 41.906712 -35.071364
H -34.890731 42.022408 -36.079768
H -28.481372 33.691477 -31.810000
H -41.440753 38.347003 -33.086470
H -33.914262 48.821650 -26.498576
H -36.482053 39.731545 -35.331394
12
Step 464
C -35.394936 39.854826 -38.200136
C -35.317281 41.764529 -35.402579
C -39.443902 40.145612 -33.901629
C -39.997823 43.906009 -32.844871
C -38.171132 45.046689 -34.742374
C -37.601227 40.234657 -34.936309
H -35.241351 41.908281 -35.065230
H -34.889967 42.018063 -36.086000
H -28.464797 33.674406 -31.808560
H -41.445059 38.341622 -33.087988
H -33.901376 48.836387 -26.480571
H -36.475194 39.737393 -35.329168
12
Step 465
C -35.392318 39.850127 -38.204911
C -35.315862 41.764532 -35.403281
C -39.449227 40.142422 -33.902356
C -40.001547 43.911084 -32.843484
C -38.169544 45.054042 -34.741670
C -37.600771 40.230512 -34.933861
H -35.238749 41.909735 -35.059159
H -34.889156 42.013703 -36.092400
H -28.448223 33.657334 -31.807121
H -41.449365 38.336240 -33.089507
H -33.888489 48.851123 -26.462566
H -36.468400 39.743267 -35.326925
12
Step 466
C -35.389700 39.845429 -38.209684
C -35.314437 41.764549 -35.403957
C -39.454553 40.139234 -33.903082
C -40.005271 43.916159 -32.842097
C -38.167955 45.061393 -34.740966
C -37.600308 40.226367 -34.931414
H -35.236289 41.911039 -35.053259
H -34.888304 42.009324 -36.098959
H -28.431648 33.640263 -31.805682
H -41.453670 38.330859 -33.091026
H -33.875603 48.865860 -26.444560
H -36.461670 39.749165 -35.324666
12
Step 467
C -35.387082 39.840732 -38.214457
C -35.313007 41.764578 -35.404602
C -39.459880 40.136046 -33.903808
C -40.008993 43.921234 -32.840711
C -38.166366 45.068744 -34.740262
C -37.599837 40.222220 -34.928970
H -35.233971 41.912192 -35.047567
H -34.887409 42.004926 -36.105676
H -28.415074 33.623192 -31.804242
H -41.457973 38.325478 -33.092545
H -33.862716 48.880596 -26.426555
H -36.455002 39.755086 -35.322392
12
Step 468
C -35.384463 39.836037 -38.219229
C -35.311571 41.764619 -35.405215
C -39.465207 40.132858 -33.904534
C -40.012715 43.926308 -32.839325
C -38.164777 45.076094 -34.739558
C -37.599358 40.218073 -34.926527
H -35.231792 41.913196 -35.042107
H -34.886467 42.000509 -36.112554
H -28.398500 33.606121 -31.802803
H -41.462276 38.320099 -33.094065
H -33.849829 48.895333 -26.408550
H -36.448396 39.761026 -35.320105
12
Step 469
C -35.381844 39.831345 -38.223998
C -35.310128 41.764678 -35.405777
C -39.470536 40.129671 -33.905258
C -40.016437 43.931382 -32.837940
C -38.163188 45.083442 -34.738853
C -37.598872 40.213924 -34.924086
H -35.229780 41.913985 -35.037110
H -34.885467 41.996082 -36.119597
H -28.381925 33.589049 -31.801364
H -41.466577 38.314719 -33.095585
H -33.836943 48.910069 -26.390545
H -36.441850 39.766984 -35.317808
12
Step 470
C -35.379224 39.826654 -38.228766
C -35.308678 41.764756 -35.406276
C -39.475866 40.126485 -33.905982
C -40.020158 43.936456 -32.836556
C -38.161599 45.090790 -34.738147
C -37.598380 40.209773 -34.921647
H -35.227945 41.914531 -35.032697
H -34.884396 41.991652 -36.126815
H -28.365351 33.571978 -31.799924
H -41.470876 38.309341 -33.097105
H -33.824056 48.924806 -26.372540
H -36.435362 39.772956 -35.315504
12
Step 471
C -35.376604 39.821966 -38.233532
C -35.307220 41.764855 -35.406702
C -39.481198 40.123299 -33.906706
C -40.023878 43.941530 -32.835173
C -38.160010 45.098136 -34.737442
C -37.597882 40.205621 -34.919208
H -35.226293 41.914806 -35.028999
H -34.883241 41.987228 -36.134210
H -28.348777 33.554907 -31.798485
H -41.475175 38.303963 -33.098627
H -33.811170 48.939543 -26.354534
H -36.428931 39.778940 -35.313194
12
Step 472
C -35.373984 39.817280 -38.238296
C -35.305755 41.764978 -35.407043
C -39.486531 40.120114 -33.907428
C -40.027598 43.946603 -32.833790
C -38.158420 45.105482 -34.736736
C -37.597378 40.201467 -34.916771
H -35.224830 41.914781 -35.026158
H -34.881996 41.982816 -36.141776
H -28.332202 33.537835 -31.797045
H -41.479472 38.298586 -33.100148
H -33.798283 48.954279 -26.336529
H -36.422557 39.784931 -35.310880
12
Step 473
C -35.371363 39.812596 -38.243058
C -35.304281 41.765126 -35.407292
C -39.491866 40.116929 -33.908150
C -40.031317 43.951676 -32.832408
C -38.156831 45.112827 -34.736029
C -37.596870 40.197311 -34.914336
H -35.223561 41.914435 -35.024278
H -34.880656 41.978422 -36.149508
H -28.315628 33.520764 -31.795606
H -41.483767 38.293210 -33.101671
H -33.785397 48.969016 -26.318524
H -36.416238 39.790929 -35.308563
12
Step 474
C -35.368742 39.807915 -38.247818
C -35.302800 41.765300 -35.407443
C -39.497202 40.113744 -33.908870
C -40.035036 43.956749 -32.831026
C -38.155241 45.120170 -34.735322
C -37.596356 40.193153 -34.911901
H -35.222485 41.913760 -35.023419
H -34.879219 41.974049 -36.157401
H -28.299053 33.503693 -31.794167
H -41.488061 38.287835 -33.103193
H -33.772510 48.983752 -26.300519
H -36.409972 39.796931 -35.306244
12
Step 475
C -35.366121 39.803237 -38.252575
C -35.301311 41.765498 -35.407496
C -39.502540 40.110561 -33.909590
C -40.038754 43.961822 -32.829645
C -38.153652 45.127513 -34.734615
C -37.595837 40.188994 -34.909467
H -35.221594 41.912757 -35.023604
H -34.877683 41.969697 -36.165449
H -28.282479 33.486622 -31.792727
H -41.492352 38.282462 -33.104717
H -33.759624 48.998489 -26.282514
H -36.403758 39.802936 -35.303923
12
Step 476
C -35.363499 39.798561 -38.257330
C -35.299817 41.765720 -35.407452
C -39.507879 40.107377 -33.910309
C -40.042471 43.966895 -32.828265
C -38.152062 45.134855 -34.733908
C -37.595313 40.184833 -34.907034
H -35.220878 41.911441 -35.024812
H -34.876050 41.965368 -36.173646
H -28.265905 33.469550 -31.791288
H -41.496643 38.277089 -33.106241
H -33.746737 49.013225 -26.264508
H -36.397593 39.808944 -35.301601
12
Step 477
C -35.360877 39.793888 -38.262083
C -35.298317 41.765964 -35.407318
C -39.513221 40.104194 -33.911027
C -40.046188 43.971967 -32.826886
C -38.150472 45.142196 -34.733199
C -37.594784 40.180671 -34.904602
H -35.220315 41.909842 -35.026972
H -34.874323 41.961058 -36.181983
H -28.249330 33.452479 -31.789849
H -41.500931 38.271717 -33.107765
H -33.733850 49.027962 -26.246503
H -36.391476 39.814954 -35.299276
12
Step 478
C -35.358254 39.789217 -38.266833
C -35.296814 41.766225 -35.407107
C -39.518564 40.101012 -33.911744
C -40.049905 43.977039 -32.825507
C -38.148883 45.149535 -34.732491
C -37.594250 40.176507 -34.902172
H -35.219879 41.908005 -35.029964
H -34.872512 41.956763 -36.190448
H -28.232756 33.435408 -31.788409
H -41.505217 38.266347 -33.109290
H -33.720964 49.042698 -26.228498
H -36.385406 39.820964 -35.296948
12
Step 479
C -35.355631 39.784550 -38.271580
C -35.295310 41.766499 -35.406833
C -39.523910 40.097830 -33.912460
C -40.053620 43.982111 -32.824128
C -38.147293 45.156875 -34.731782
C -37.593711 40.172343 -34.899743
H -35.219538 41.905987 -35.033622
H -34.870630 41.952475 -36.199022
H -28.216182 33.418336 -31.786970
H -41.509502 38.260978 -33.110816
H -33.708077 49.057435 -26.210493
H -36.379381 39.826974 -35.294615
12
Step 480
C -35.353008 39.779886 -38.276324
C -35.293806 41.766782 -35.406515
C -39.529257 40.094648 -33.913175
C -40.057335 43.987183 -32.822751
C -38.145703 45.164213 -34.731073
C -37.593167 40.168177 -34.897316
H -35.219259 41.903849 -35.037762
H -34.868693 41.948186 -36.207679
H -28.199607 33.401265 -31.785531
H -41.513785 38.255610 -33.112343
H -33.695191 49.072172 -26.192487
H -36.373400 39.832983 -35.292276
12
Step 481
C -35.350384 39.775225 -38.281065
C -35.292303 41.767069 -35.406171
C -39.534607 40.091467 -33.913889
C -40.061050 43.992254 -32.821374
C -38.144114 45.171550 -34.730363
C -37.592617 40.164011 -34.894890
H -35.219008 41.901653 -35.042184
H -34.866722 41.943886 -36.216391
H -28.183033 33.384194 -31.784091
H -41.518066 38.250244 -33.113870
H -33.682304 49.086908 -26.174482
H -36.367461 39.838988 -35.289929
12
Step 482
C -35.347760 39.770567 -38.285802
C -35.290802 41.767356 -35.405821
C -39.539958 40.088286 -33.914601
C -40.064764 43.997326 -32.819998
C -38.142524 45.178887 -34.729653
C -37.592062 40.159845 -34.892466
H -35.218757 41.899456 -35.046698
H -34.864738 41.939567 -36.225126
H -28.166458 33.367123 -31.782652
H -41.522344 38.244879 -33.115398
H -33.669418 49.101645 -26.156477
H -36.361565 39.844988 -35.287571
12
Step 483
C -35.345135 39.765912 -38.290537
C -35.289303 41.767642 -35.405473
C -39.545312 40.085105 -33.915312
C -40.068477 44.002397 -32.818622
C -38.140935 45.186222 -34.728942
C -37.591500 40.155678 -34.890044
H -35.218495 41.897278 -35.051217
H -34.862756 41.935221 -36.233857
H -28.149884 33.350051 -31.781213
H -41.526621 38.239515 -33.116927
H -33.656531 49.116381 -26.138472
H -36.355711 39.850979 -35.285201
12
Step 484
C -35.342510 39.761260 -38.295269
C -35.287805 41.767927 -35.405135
C -39.550668 40.081925 -33.916023
C -40.072191 44.007468 -32.817247
C -38.139345 45.193557 -34.728232
C -37.590934 40.151511 -34.887624
H -35.218215 41.895131 -35.055699
H -34.860792 41.930845 -36.242556
H -28.133310 33.332980 -31.779773
H -41.530896 38.234152 -33.118457
H -33.643645 49.131118 -26.120467
H -36.349899 39.856960 -35.282818
12
Step 485
C -35.339885 39.756610 -38.299997
C -35.286308 41.768209 -35.404809
C -39.556026 40.078745 -33.916732
C -40.075903 44.012539 -32.815872
C -38.137755 45.200892 -34.727521
C -37.590361 40.147344 -34.885205
H -35.217909 41.893021 -35.060117
H -34.858856 41.926437 -36.251197
H -28.116735 33.315909 -31.778334
H -41.535169 38.228791 -33.119987
H -33.630758 49.145854 -26.102461
H -36.344127 39.862926 -35.280424
12
Step 486
C -35.337260 39.751964 -38.304723
C -35.284811 41.768490 -35.404501
C -39.561387 40.075566 -33.917439
C -40.079615 44.017609 -32.814498
C -38.136166 45.208226 -34.726809
C -37.589783 40.143177 -34.882789
H -35.217570 41.890959 -35.064448
H -34.856956 41.921996 -36.259759
H -28.100161 33.298837 -31.776895
H -41.539440 38.223432 -33.121518
H -33.617871 49.160591 -26.084456
H -36.338397 39.868876 -35.278017
12
Step 487
C -35.334635 39.747320 -38.309446
C -35.283314 41.768768 -35.404214
C -39.566750 40.072387 -33.918146
C -40.083327 44.022679 -32.813124
C -38.134576 45.215559 -34.726098
C -37.589200 40.139010 -34.880375
H -35.217187 41.888959 -35.068655
H -34.855099 41.917524 -36.268223
H -28.083587 33.281766 -31.775455
H -41.543709 38.218074 -33.123050
H -33.604985 49.175328 -26.066451
H -36.332707 39.874807 -35.275599
12
Step 488
C -35.332009 39.742678 -38.314167
C -35.281819 41.769039 -35.403959
C -39.572115 40.069208 -33.918851
C -40.087039 44.027749 -32.811751
C -38.132986 45.222892 -34.725386
C -37.588612 40.134843 -34.877963
H -35.216729 41.887069 -35.072611
H -34.853287 41.913024 -36.276575
H -28.067012 33.264695 -31.774016
H -41.547975 38.212717 -33.124583
H -33.592098 49.190064 -26.048446
H -36.327054 39.880716 -35.273170
12
Step 489
C -35.329383 39.738039 -38.318885
C -35.280331 41.769297 -35.403758
C -39.577483 40.066029 -33.919555
C -40.090750 44.032819 -32.810378
C -38.131397 45.230224 -34.724675
C -37.588019 40.130676 -34.875552
H -35.216154 41.885367 -35.076094
H -34.851525 41.908496 -36.284798
H -28.050438 33.247624 -31.772577
H -41.552240 38.207362 -33.126117
H -33.579212 49.204801 -26.030441
H -36.321438 39.886603 -35.270730
12
Step 490
C -35.326757 39.733401 -38.323601
C -35.278852 41.769535 -35.403628
C -39.582853 40.062851 -33.920258
C -40.094461 44.037889 -32.809005
C -38.129807 45.237555 -34.723963
C -37.587421 40.126509 -34.873143
H -35.215422 41.883924 -35.078895
H -34.849816 41.903944 -36.292882
H -28.033863 33.230552 -31.771137
H -41.556502 38.202009 -33.127651
H -33.566325 49.219537 -26.012435
H -36.315857 39.892465 -35.268281
12
Step 491
C -35.324131 39.728765 -38.328315
C -35.277383 41.769749 -35.403584
C -39.588226 40.059673 -33.920960
C -40.098172 44.042958 -32.807633
C -38.128217 45.244887 -34.723250
C -37.586818 40.122343 -34.870735
H -35.214505 41.882792 -35.080849
H -34.848163 41.899366 -36.300816
H -28.017289 33.213481 -31.769698
H -41.560762 38.196657 -33.129186
H -33.553439 49.234274 -25.994430
H -36.310311 39.898300 -35.265822
12
Step 492
C -35.321505 39.724131 -38.333028
C -35.275927 41.769936 -35.403636
C -39.593601 40.056496 -33.921660
C -40.101882 44.048027 -32.806261
C -38.126627 45.252217 -34.722538
C -37.586211 40.118177 -34.868329
H -35.213386 41.882007 -35.081844
H -34.846570 41.894766 -36.308593
H -28.000715 33.196410 -31.768259
H -41.565020 38.191307 -33.130722
H -33.540552 49.249010 -25.976425
H -36.304797 39.904107 -35.263354
12
Step 493
C -35.318879 39.719499 -38.337738
C -35.274484 41.770096 -35.403789
C -39.598978 40.053318 -33.922359
C -40.105592 44.053095 -32.804889
C -38.125037 45.259547 -34.721826
C -37.585598 40.114012 -34.865924
H -35.212059 41.881583 -35.081823
H -34.845037 41.890142 -36.316208
H -27.984140 33.179339 -31.766819
H -41.569276 38.185958 -33.132259
H -33.527666 49.263747 -25.958420
H -36.299316 39.909886 -35.260878
12
Step 494
C -35.316252 39.714868 -38.342446
C -35.273053 41.770227 -35.404045
C -39.604358 40.050141 -33.923056
C -40.109302 44.058163 -32.803518
C -38.123446 45.266877 -34.721113
C -37.584981 40.109848 -34.863521
H -35.210524 41.881518 -35.080775
H -34.843568 41.885496 -36.323656
H -27.967566 33.162267 -31.765380
H -41.573529 38.180612 -33.133797
H -33.514779 49.278483 -25.940415
H -36.293866 39.915635 -35.258394
12
Step 495
C -35.313626 39.710240 -38.347151
C -35.271633 41.770332 -35.404401
C -39.609741 40.046964 -33.923753
C -40.113012 44.063232 -32.802147
C -38.121856 45.274206 -34.720400
C -37.584359 40.105685 -34.861118
H -35.208793 41.881794 -35.078738
H -34.842163 41.880826 -36.330935
H -27.950992 33.145196 -31.763941
H -41.577780 38.175267 -33.135336
H -33.501892 49.293220 -25.922409
H -36.288445 39.921354 -35.255901
12
Step 496
C -35.310999 39.705614 -38.351855
C -35.270222 41.770414 -35.404851
C -39.615126 40.043787 -33.924448
C -40.116721 44.068299 -32.800776
C -38.120266 45.281535 -34.719687
C -37.583733 40.101522 -34.858718
H -35.206884 41.882378 -35.075786
H -34.840825 41.876131 -36.338047
H -27.934417 33.128125 -31.762501
H -41.582029 38.169924 -33.136876
H -33.489006 49.307957 -25.904404
H -36.283052 39.927042 -35.253400
12
Step 497
C -35.308373 39.700990 -38.356555
C -35.268818 41.770476 -35.405383
C -39.620514 40.040610 -33.925142
C -40.120430 44.073367 -32.799406
C -38.118676 45.288863 -34.718974
C -37.583103 40.097359 -34.856318
H -35.204829 41.883217 -35.072052
H -34.839555 41.871411 -36.344994
H -27.917843 33.111053 -31.761062
H -41.586275 38.164584 -33.138416
H -33.476119 49.322693 -25.886399
H -36.277685 39.932700 -35.250890
12
Step 498
C -35.305746 39.696368 -38.361253
C -35.267416 41.770525 -35.405981
C -39.625904 40.037434 -33.925834
C -40.124138 44.078434 -32.798036
C -38.117086 45.296190 -34.718261
C -37.582469 40.093197 -34.853919
H -35.202672 41.884243 -35.067726
H -34.838352 41.866662 -36.351785
H -27.901268 33.093982 -31.759623
H -41.590518 38.159245 -33.139958
H -33.463233 49.337430 -25.868394
H -36.272345 39.938328 -35.248372
12
Step 499
C -35.303119 39.691750 -38.365947
C -35.266012 41.770569 -35.406628
C -39.631297 40.034258 -33.926525
C -40.127847 44.083501 -32.796667
C -38.115496 45.303518 -34.717547
C -37.581832 40.089035 -34.851522
H -35.200465 41.885371 -35.063018
H -34.837219 41.861882 -36.358429
H -27.884694 33.076911 -31.758183
H -41.594759 38.153909 -33.141501
H -33.450346 49.352166 -25.850389
H -36.267029 39.943925 -35.245845
12
Step 500
C -35.300492 39.687134 -38.370638
C -35.264601 41.770611 -35.407309
C -39.636693 40.031082 -33.927215
C -40.131554 44.088568 -32.795298
C -38.113905 45.310844 -34.716833
C -37.581192 40.084873 -34.849126
H -35.198251 41.886541 -35.058100
H -34.836157 41.857070 -36.364929
H -27.868120 33.059840 -31.756744
H -41.598997 38.148574 -33.143044
H -33.437460 49.366903 -25.832383
H -36.261741 39.949490 -35.243309
12
Step 501
C -35.297864 39.682521 -38.375325
C -35.263182 41.770656 -35.408016
C -39.642092 40.027906 -33.927904
C -40.135262 44.093635 -32.793929
C -38.112316 45.318171 -34.716119
C -37.580549 40.080710 -34.846731
H -35.196051 41.887724 -35.053047
H -34.835167 41.852224 -36.371291
H -27.851545 33.042768 -31.755305
H -41.603232 38.143243 -33.144589
H -33.424573 49.381639 -25.814378
H -36.256479 39.955019 -35.240765
12
Step 502
C -35.295237 39.677911 -38.380009
C -35.261750 41.770708 -35.408739
C -39.647493 40.024730 -33.928591
C -40.138969 44.098701 -32.792561
C -38.110726 45.325496 -34.715405
C -37.579904 40.076548 -34.844337
H -35.193898 41.888876 -35.048000
H -34.834251 41.847343 -36.377517
H -27.834971 33.025697 -31.753865
H -41.607464 38.137913 -33.146135
H -33.411687 49.396376 -25.796373
H -36.251243 39.960507 -35.238213
12
Step 503
C -35.292609 39.673305 -38.384689
C -35.260304 41.770768 -35.409470
C -39.652897 40.021554 -33.929277
C -40.142676 44.103768 -32.791193
C -38.109136 45.332822 -34.714690
C -37.579256 40.072385 -34.841944
H -35.191818 41.889965 -35.043053
H -34.833414 41.842424 -36.383606
H -27.818397 33.008626 -31.752426
H -41.611693 38.132586 -33.147682
H -33.398800 49.411112 -25.778368
H -36.246036 39.965949 -35.235654
12
Step 504
C -35.289981 39.668702 -38.389365
C -35.258841 41.770842 -35.410199
C -39.658303 40.018379 -33.929962
C -40.146382 44.108834 -32.789826
C -38.107546 45.340147 -34.713975
C -37.578607 40.068221 -34.839551
H -35.189833 41.890960 -35.038315
H -34.832654 41.837469 -36.389562
H -27.801822 32.991554 -31.750986
H -41.615919 38.127262 -33.149230
H -33.385913 49.425849 -25.760363
H -36.240859 39.971341 -35.233089
12
Step 505
C -35.287353 39.664103 -38.394036
C -35.257359 41.770930 -35.410918
C -39.663713 40.015203 -33.930645
C -40.150088 44.113900 -32.788459
C -38.105957 45.347472 -34.713260
C -37.577955 40.064057 -34.837159
H -35.187959 41.891834 -35.033891
H -34.831971 41.832479 -36.395389
H -27.785248 32.974483 -31.749547
H -41.620142 38.121940 -33.150780
H -33.373027 49.440586 -25.742357
H -36.235715 39.976677 -35.230520
12
Step 506
C -35.284724 39.659507 -38.398704
C -35.255857 41.771036 -35.411616
C -39.669125 40.012028 -33.931327
C -40.153794 44.118965 -32.787092
C -38.104368 45.354796 -34.712545
C -37.577302 40.059893 -34.834767
H -35.186214 41.892561 -35.029894
H -34.831358 41.827456 -36.401091
H -27.768673 32.957412 -31.748108
H -41.624362 38.116621 -33.152330
H -33.360140 49.455322 -25.724352
H -36.230608 39.981953 -35.227946
12
Step 507
C -35.282096 39.654915 -38.403368
C -35.254334 41.771162 -35.412282
C -39.674539 40.008853 -33.932008
C -40.157499 44.124031 -32.785726
C -38.102779 45.362120 -34.711829
C -37.576647 40.055728 -34.832376
H -35.184616 41.893109 -35.026449
H -34.830812 41.822404 -36.406679
H -27.752099 32.940341 -31.746668
H -41.628579 38.111305 -33.153882
H -33.347254 49.470059 -25.706347
H -36.225539 39.987165 -35.225370
12
Step 508
C -35.279467 39.650326 -38.408029
C -35.252788 41.771311 -35.412906
C -39.679957 40.005678 -33.932688
C -40.161204 44.129096 -32.784360
C -38.101190 45.369443 -34.711113
C -37.575991 40.051562 -34.829985
H -35.183184 41.893447 -35.023668
H -34.830327 41.817323 -36.412158
H -27.735525 32.923269 -31.745229
H -41.632792 38.105992 -33.155435
H -33.334367 49.484795 -25.688342
H -36.220511 39.992311 -35.222792
12
Step 509
C -35.276837 39.645740 -38.412685
C -35.251218 41.771485 -35.413481
C -39.685377 40.002503 -33.933367
C -40.164908 44.134161 -32.782995
C -38.099601 45.376766 -34.710397
C -37.575333 40.047396 -34.827594
H -35.181931 41.893554 -35.021636
H -34.829899 41.812216 -36.417538
H -27.718950 32.906198 -31.743790
H -41.637002 38.100681 -33.156990
H -33.321481 49.499532 -25.670336
H -36.215527 39.997390 -35.220213
12
Step 510
C -35.274208 39.641157 -38.417338
C -35.249624 41.771686 -35.414000
C -39.690799 39.999328 -33.934044
C -40.168613 44.139226 -32.781630
C -38.098013 45.384089 -34.709680
C -37.574672 40.043228 -34.825203
H -35.180868 41.893414 -35.020408
H -34.829525 41.807085 -36.422825
H -27.702376 32.889127 -31.742350
H -41.641209 38.095374 -33.158545
H -33.308594 49.514268 -25.652331
H -36.210589 40.002401 -35.217632
12
Step 511
C -35.271578 39.636578 -38.421987
C -35.248005 41.771914 -35.414460
C -39.696225 39.996153 -33.934720
C -40.172316 44.144291 -32.780266
C -38.096424 45.391411 -34.708964
C -37.574010 40.039060 -34.822813
H -35.180001 41.893020 -35.020012
H -34.829202 41.801929 -36.428025
H -27.685802 32.872055 -31.740911
H -41.645412 38.090070 -33.160102
H -33.295708 49.529005 -25.634326
H -36.205700 40.007345 -35.215050
12
Step 512
C -35.268948 39.632001 -38.426633
C -35.246361 41.772168 -35.414862
C -39.701653 39.992978 -33.935395
C -40.176019 44.149355 -32.778902
C -38.094836 45.398732 -34.708246
C -37.573346 40.034891 -34.820423
H -35.179333 41.892368 -35.020458
H -34.828929 41.796749 -36.433145
H -27.669227 32.854984 -31.739472
H -41.649612 38.084768 -33.161660
H -33.282821 49.543742 -25.616321
H -36.200863 40.012222 -35.212466
12
Step 513
C -35.266318 39.627428 -38.431276
C -35.244693 41.772450 -35.415203
C -39.707084 39.989803 -33.936069
C -40.179722 44.154420 -32.777538
C -38.093248 45.406054 -34.707529
C -37.572678 40.030722 -34.818033
H -35.178863 41.891461 -35.021740
H -34.828705 41.791546 -36.438186
H -27.652653 32.837913 -31.738032
H -41.653808 38.079471 -33.163220
H -33.269934 49.558478 -25.598316
H -36.196081 40.017034 -35.209879
12
Step 514
C -35.263688 39.622857 -38.435915
C -35.243000 41.772758 -35.415487
C -39.712518 39.986628 -33.936742
C -40.183425 44.159484 -32.776175
C -38.091660 45.413375 -34.706811
C -37.572008 40.026551 -34.815643
H -35.178589 41.890304 -35.023836
H -34.828529 41.786319 -36.443152
H -27.636078 32.820842 -31.736593
H -41.658000 38.074176 -33.164781
H -33.257048 49.573215 -25.580310
H -36.191356 40.021784 -35.207288
12
Step 515
C -35.261057 39.618289 -38.440551
C -35.241284 41.773092 -35.415716
C -39.717954 39.983453 -33.937413
C -40.187127 44.164548 -32.774813
C -38.090073 45.420695 -34.706093
C -37.571334 40.022380 -34.813255
H -35.178506 41.888906 -35.026709
H -34.828401 41.781068 -36.448043
H -27.619504 32.803770 -31.735154
H -41.662189 38.068885 -33.166343
H -33.244161 49.587951 -25.562305
H -36.186693 40.026476 -35.204690
12
Step 516
C -35.258426 39.613724 -38.445184
C -35.239545 41.773449 -35.415896
C -39.723393 39.980278 -33.938083
C -40.190828 44.169612 -32.773451
C -38.088486 45.428015 -34.705375
C -37.570655 40.018208 -34.810866
H -35.178606 41.887281 -35.030300
H -34.828323 41.775792 -36.452861
H -27.602930 32.786699 -31.733714
H -41.666374 38.063597 -33.167906
H -33.231275 49.602688 -25.544300
H -36.182092 40.031114 -35.202085
12
Step 517
C -35.255796 39.609162 -38.449814
C -35.237784 41.773828 -35.416031
C -39.728835 39.977104 -33.938753
C -40.194529 44.174676 -32.772089
C -38.086899 45.435335 -34.704656
C -37.569972 40.014036 -34.808479
H -35.178878 41.885450 -35.034530
H -34.828296 41.770490 -36.457605
H -27.586355 32.769628 -31.732275
H -41.670555 38.058313 -33.169471
H -33.218388 49.617424 -25.526295
H -36.177558 40.035702 -35.199471
12
Step 518
C -35.253165 39.604603 -38.454440
C -35.236003 41.774226 -35.416130
C -39.734279 39.973929 -33.939421
C -40.198230 44.179740 -32.770728
C -38.085312 45.442654 -34.703937
C -37.569284 40.009862 -34.806093
H -35.179311 41.883432 -35.039315
H -34.828319 41.765163 -36.462277
H -27.569781 32.752556 -31.730836
H -41.674732 38.053032 -33.171038
H -33.205502 49.632161 -25.508290
H -36.173091 40.040248 -35.196846
12
Step 519
C -35.250534 39.600046 -38.459064
C -35.234202 41.774642 -35.416197
C -39.739727 39.970754 -33.940087
C -40.201930 44.184804 -32.769367
C -38.083726 45.449973 -34.703217
C -37.568591 40.005689 -34.803709
H -35.179895 41.881243 -35.044585
H -34.828392 41.759811 -36.466878
H -27.553207 32.735485 -31.729396
H -41.678905 38.047755 -33.172605
H -33.192615 49.646897 -25.490284
H -36.168694 40.044758 -35.194207
12
Step 520
C -35.247902 39.595491 -38.463685
C -35.232385 41.775074 -35.416241
C -39.745177 39.967580 -33.940753
C -40.205630 44.189867 -32.768007
C -38.082140 45.457292 -34.702498
C -37.567891 40.001514 -34.801325
H -35.180616 41.878904 -35.050253
H -34.828514 41.754436 -36.471409
H -27.536632 32.718414 -31.727957
H -41.683075 38.042482 -33.174175
H -33.179729 49.661634 -25.472279
H -36.164370 40.049237 -35.191554
12
Step 521
C -35.245271 39.590939 -38.468303
C -35.230551 41.775517 -35.416270
C -39.750629 39.964405 -33.941418
C -40.209329 44.194930 -32.766648
C -38.080554 45.464610 -34.701778
C -37.567184 39.997339 -34.798944
H -35.181457 41.876446 -35.056198
H -34.828681 41.749040 -36.475873
H -27.520058 32.701343 -31.726518
H -41.687240 38.037213 -33.175745
H -33.166842 49.676371 -25.454274
H -36.160121 40.053691 -35.188882
12
Step 522
C -35.242640 39.586389 -38.472919
C -35.228705 41.775969 -35.416301
C -39.756085 39.961230 -33.942081
C -40.213028 44.199994 -32.765288
C -38.078969 45.471927 -34.701057
C -37.566470 39.993164 -34.796564
H -35.182389 41.873919 -35.062221
H -34.828891 41.743625 -36.480272
H -27.503483 32.684271 -31.725078
H -41.691402 38.031947 -33.177318
H -33.153955 49.691107 -25.436269
H -36.155950 40.058125 -35.186191
12
Step 523
C -35.240008 39.581841 -38.477532
C -35.226850 41.776421 -35.416357
C -39.761543 39.958055 -33.942743
C -40.216727 44.205057 -32.763929
C -38.077383 45.479245 -34.700336
C -37.565748 39.988989 -34.794187
H -35.183378 41.871394 -35.068050
H -34.829140 41.738194 -36.484611
H -27.486909 32.667200 -31.723639
H -41.695559 38.026685 -33.178891
H -33.141069 49.705844 -25.418264
H -36.151862 40.062542 -35.183476
12
Step 524
C -35.237377 39.577294 -38.482144
C -35.224990 41.776867 -35.416463
C -39.767004 39.954881 -33.943405
C -40.220425 44.210120 -32.762571
C -38.075798 45.486562 -34.699615
C -37.565017 39.984813 -34.791812
H -35.184386 41.868954 -35.073365
H -34.829425 41.732751 -36.488894
H -27.470335 32.650129 -31.722200
H -41.699712 38.021428 -33.180466
H -33.128182 49.720580 -25.400258
H -36.147861 40.066946 -35.180738
12
Step 525
C -35.234746 39.572749 -38.486753
C -35.223128 41.777299 -35.416649
C -39.772467 39.951706 -33.944065
C -40.224122 44.215183 -32.761213
C -38.074213 45.493878 -34.698894
C -37.564276 39.980638 -34.789439
H -35.185375 41.866687 -35.077811
H -34.829743 41.727297 -36.493121
H -27.453760 32.633057 -31.720760
H -41.703861 38.016174 -33.182043
H -33.115296 49.735317 -25.382253
H -36.143950 40.071340 -35.177973
12
Step 526
C -35.232115 39.568206 -38.491361
C -35.221268 41.777709 -35.416942
C -39.777933 39.948531 -33.944724
C -40.227820 44.220246 -32.759856
C -38.072629 45.501194 -34.698172
C -37.563526 39.976463 -34.787068
H -35.186315 41.864668 -35.081077
H -34.830094 41.721834 -36.497286
H -27.437186 32.615986 -31.719321
H -41.708006 38.010924 -33.183621
H -33.102409 49.750053 -25.364248
H -36.140135 40.075725 -35.175181
12
Step 527
C -35.229483 39.563663 -38.495967
C -35.219409 41.778095 -35.417363
C -39.783402 39.945356 -33.945382
C -40.231516 44.225309 -32.758499
C -38.071045 45.508510 -34.697450
C -37.562765 39.972289 -34.784700
H -35.187191 41.862951 -35.082909
H -34.830477 41.716364 -36.501384
H -27.420611 32.598915 -31.717882
H -41.712147 38.005679 -33.185201
H -33.089523 49.764790 -25.346243
H -36.136420 40.080103 -35.172360
12
Step 528
C -35.226852 39.559122 -38.500572
C -35.217554 41.778452 -35.417924
C -39.788873 39.942181 -33.946039
C -40.235213 44.230372 -32.757142
C -38.069461 45.515825 -34.696728
C -37.561993 39.968115 -34.782335
H -35.188003 41.861562 -35.083177
H -34.830892 41.710889 -36.505415
H -27.404037 32.581844 -31.716442
H -41.716284 38.000438 -33.186782
H -33.076636 49.779527 -25.328238
H -36.132809 40.084474 -35.169509
12
Step 529
C -35.224221 39.554582 -38.505175
C -35.215700 41.778781 -35.418625
C -39.794347 39.939006 -33.946695
C -40.238908 44.235434 -32.755786
C -38.067877 45.523140 -34.696005
C -37.561211 39.963942 -34.779972
H -35.188760 41.860497 -35.081862
H -34.831339 41.705409 -36.509380
H -27.387463 32.564772 -31.715003
H -41.720416 37.995200 -33.188365
H -33.063750 49.794263 -25.310232
H -36.129306 40.088838 -35.166627
12
Step 530
C -35.221590 39.550043 -38.509776
C -35.213848 41.779084 -35.419459
C -39.799824 39.935831 -33.947350
C -40.242604 44.240497 -32.754431
C -38.066294 45.530454 -34.695282
C -37.560416 39.959770 -34.777612
H -35.189477 41.859732 -35.079054
H -34.831814 41.699925 -36.513283
H -27.370888 32.547701 -31.713564
H -41.724544 37.989968 -33.189949
H -33.050863 49.809000 -25.292227
H -36.125919 40.093193 -35.163713
12
Step 531
C -35.218959 39.545505 -38.514376
C -35.211995 41.779367 -35.420407
C -39.805303 39.932655 -33.948004
C -40.246299 44.245560 -32.753075
C -38.064710 45.537768 -34.694558
C -37.559609 39.955598 -34.775255
H -35.190175 41.859214 -35.074967
H -34.832317 41.694435 -36.517126
H -27.354314 32.530630 -31.712124
H -41.728668 37.984739 -33.191535
H -33.037976 49.823736 -25.274222
H -36.122650 40.097538 -35.160768
12
Step 532
C -35.216328 39.540969 -38.518974
C -35.210139 41.779633 -35.421444
C -39.810784 39.929480 -33.948657
C -40.249993 44.250622 -32.751721
C -38.063128 45.545081 -34.693834
C -37.558790 39.951428 -34.772901
H -35.190876 41.858874 -35.069924
H -34.832848 41.688942 -36.520904
H -27.337740 32.513559 -31.710685
H -41.732787 37.979515 -33.193123
H -33.025090 49.838473 -25.256217
H -36.119507 40.101869 -35.157790
12
Step 533
C -35.213697 39.536434 -38.523570
C -35.208279 41.779891 -35.422539
C -39.816268 39.926305 -33.949309
C -40.253687 44.255685 -32.750366
C -38.061545 45.552394 -34.693110
C -37.557958 39.947258 -34.770550
H -35.191597 41.858633 -35.064281
H -34.833410 41.683445 -36.524605
H -27.321165 32.496487 -31.709246
H -41.736902 37.974295 -33.194712
H -33.012203 49.853209 -25.238212
H -36.116494 40.106184 -35.154779
12
Step 534
C -35.211066 39.531901 -38.528165
C -35.206412 41.780146 -35.423663
C -39.821755 39.923129 -33.949960
C -40.257381 44.260747 -32.749013
C -38.059963 45.559707 -34.692386
C -37.557113 39.943089 -34.768202
H -35.192352 41.858416 -35.058414
H -34.834007 41.677946 -36.528217
H -27.304591 32.479416 -31.707806
H -41.741013 37.969080 -33.196302
H -32.999317 49.867946 -25.220206
H -36.113617 40.110478 -35.151735
12
Step 535
C -35.208435 39.527370 -38.532757
C -35.204539 41.780404 -35.424789
C -39.827244 39.919953 -33.950610
C -40.261074 44.265810 -32.747659
C -38.058381 45.567019 -34.691661
C -37.556255 39.938922 -34.765857
H -35.193149 41.858157 -35.052648
H -34.834640 41.672445 -36.531726
H -27.288016 32.462345 -31.706367
H -41.745120 37.963868 -33.197894
H -32.986430 49.882682 -25.202201
H -36.110880 40.114746 -35.148658
12
Step 536
C -35.205804 39.522840 -38.537347
C -35.202658 41.780669 -35.425900
C -39.832735 39.916778 -33.951259
C -40.264766 44.270873 -32.746306
C -38.056800 45.574331 -34.690936
C -37.555383 39.934756 -34.763515
H -35.193986 41.857818 -35.047209
H -34.835313 41.666943 -36.535120
H -27.271442 32.445273 -31.704927
H -41.749222 37.958662 -33.199488
H -32.973544 49.897419 -25.184196
H -36.108290 40.118983 -35.145549
12
Step 537
C -35.203173 39.518312 -38.541936
C -35.200769 41.780943 -35.426983
C -39.838228 39.913601 -33.951908
C -40.268459 44.275935 -32.744954
C -38.055218 45.581642 -34.690210
C -37.554498 39.930591 -34.761177
H -35.194861 41.857378 -35.042248
H -34.836025 41.661439 -36.538395
H -27.254868 32.428202 -31.703488
H -41.753320 37.953460 -33.201083
H -32.960657 49.912156 -25.166191
H -36.105855 40.123180 -35.142406
12
Step 538
C -35.200542 39.513786 -38.546522
C -35.198874 41.781228 -35.428029
C -39.843724 39.910425 -33.952555
C -40.272150 44.280998 -32.743602
C -38.053637 45.588953 -34.689484
C -37.553598 39.926427 -34.758841
H -35.195766 41.856823 -35.037876
H -34.836775 41.655934 -36.541555
H -27.238293 32.411131 -31.702049
H -41.757414 37.948262 -33.202680
H -32.947771 49.926892 -25.148186
H -36.103582 40.127325 -35.139231
12
Step 539
C -35.197911 39.509262 -38.551106
C -35.196971 41.781524 -35.429030
C -39.849222 39.907249 -33.953202
C -40.275842 44.286061 -32.742250
C -38.052057 45.596264 -34.688758
C -37.552685 39.922266 -34.756509
H -35.196696 41.856153 -35.034167
H -34.837560 41.650427 -36.544607
H -27.221719 32.394060 -31.700609
H -41.761503 37.943069 -33.204278
H -32.934884 49.941629 -25.130180
H -36.101481 40.131408 -35.136022
12
Step 540
C -35.195280 39.504740 -38.555688
C -35.195063 41.781833 -35.429982
C -39.854723 39.904072 -33.953848
C -40.279532 44.291123 -32.740899
C -38.050477 45.603574 -34.688031
C -37.551757 39.918106 -34.754179
H -35.197642 41.855366 -35.031182
H -34.838376 41.644917 -36.547560
H -27.205145 32.376988 -31.699170
H -41.765588 37.937880 -33.205878
H -32.921997 49.956365 -25.112175
H -36.099560 40.135415 -35.132780
12
Step 541
C -35.192649 39.500221 -38.560268
C -35.193149 41.782155 -35.430878
C -39.860225 39.900896 -33.954494
C -40.283223 44.296186 -32.739549
C -38.048897 45.610884 -34.687304
C -37.550814 39.913948 -34.751853
H -35.198597 41.854464 -35.028980
H -34.839220 41.639405 -36.550421
H -27.188570 32.359917 -31.697731
H -41.769669 37.932696 -33.207479
H -32.909111 49.971102 -25.094170
H -36.097827 40.139338 -35.129504
12
Step 542
C -35.190017 39.495703 -38.564845
C -35.191229 41.782491 -35.431714
C -39.865730 39.897719 -33.955138
C -40.286913 44.301249 -32.738198
C -38.047317 45.618193 -34.686577
C -37.549856 39.909792 -34.749530
H -35.199551 41.853449 -35.027610
H -34.840089 41.633890 -36.553196
H -27.171996 32.342846 -31.696291
H -41.773745 37.927516 -33.209082
H -32.896224 49.985838 -25.076165
H -36.096288 40.143165 -35.126194
12
Step 543
C -35.187386 39.491187 -38.569421
C -35.189306 41.782841 -35.432485
C -39.871236 39.894542 -33.955782
C -40.290602 44.306312 -32.736849
C -38.045738 45.625503 -34.685849
C -37.548883 39.905638 -34.747209
H -35.200495 41.852323 -35.027113
H -34.840983 41.628373 -36.555891
H -27.155421 32.325774 -31.694852
H -41.777818 37.922341 -33.210687
H -32.883338 50.000575 -25.058159
H -36.094951 40.146890 -35.122849
12
Step 544
C -35.184754 39.486673 -38.573995
C -35.187378 41.783204 -35.433191
C -39.876745 39.891364 -33.956425
C -40.294292 44.311374 -32.735499
C -38.044158 45.632811 -34.685121
C -37.547895 39.901487 -34.744892
H -35.201421 41.851090 -35.027514
H -34.841900 41.622854 -36.558505
H -27.138847 32.308703 -31.693413
H -41.781885 37.917171 -33.212293
H -32.870451 50.015311 -25.040154
H -36.093818 40.150506 -35.119469
12
Step 545
C -35.182123 39.482161 -38.578566
C -35.185448 41.783582 -35.433830
C -39.882255 39.888187 -33.957067
C -40.297981 44.316437 -32.734149
C -38.042579 45.640120 -34.684394
C -37.546892 39.897338 -34.742578
H -35.202319 41.849756 -35.028820
H -34.842839 41.617335 -36.561039
H -27.122273 32.291632 -31.691973
H -41.785949 37.912005 -33.213901
H -32.857565 50.030048 -25.022149
H -36.092893 40.154010 -35.116055
12
Step 546
C -35.179491 39.477651 -38.583136
C -35.183515 41.783972 -35.434403
C -39.887768 39.885009 -33.957709
C -40.301670 44.321499 -32.732800
C -38.041000 45.647429 -34.683666
C -37.545873 39.893192 -34.740267
H -35.203180 41.848330 -35.031019
H -34.843802 41.611815 -36.563490
H -27.105698 32.274561 -31.690534
H -41.790008 37.906844 -33.215510
H -32.844678 50.044785 -25.004144
H -36.092178 40.157399 -35.112606
12
Step 547
C -35.176859 39.473143 -38.587703
C -35.181581 41.784375 -35.434913
C -39.893282 39.881831 -33.958350
C -40.305359 44.326562 -32.731450
C -38.039420 45.654737 -34.682938
C -37.544838 39.889049 -34.737959
H -35.203997 41.846820 -35.034089
H -34.844789 41.606296 -36.565853
H -27.089124 32.257489 -31.689095
H -41.794062 37.901688 -33.217121
H -32.831791 50.059521 -24.986139
H -36.091673 40.160672 -35.109122
12
Step 548
C -35.174227 39.468638 -38.592269
C -35.179645 41.784788 -35.435362
C -39.898798 39.878653 -33.958991
C -40.309048 44.331624 -32.730101
C -38.037841 45.662045 -34.682210
C -37.543789 39.884908 -34.735654
H -35.204763 41.845231 -35.038001
H -34.845802 41.600778 -36.568121
H -27.072550 32.240418 -31.687655
H -41.798113 37.896537 -33.218733
H -32.818905 50.074258 -24.968133
H -36.091377 40.163832 -35.105603
12
Step 549
C -35.171595 39.464134 -38.596832
C -35.177708 41.785212 -35.435756
C -39.904316 39.875474 -33.959630
C -40.312737 44.336686 -32.728752
C -38.036261 45.669353 -34.681482
C -37.542724 39.880770 -34.733352
H -35.205473 41.843570 -35.042717
H -34.846843 41.595264 -36.570287
H -27.055975 32.223347 -31.686216
H -41.802159 37.891390 -33.220347
H -32.806018 50.088994 -24.950128
H -36.091286 40.166885 -35.102049
12
Step 550
C -35.168962 39.459633 -38.601393
C -35.175771 41.785645 -35.436097
C -39.909835 39.872295 -33.960270
C -40.316426 44.341748 -32.727403
C -38.034682 45.676661 -34.680754
C -37.541644 39.876635 -34.731053
H -35.206124 41.841841 -35.048190
H -34.847913 41.589754 -36.572339
H -27.039401 32.206275 -31.684777
H -41.806201 37.886248 -33.221962
H -32.793132 50.103731 -24.932123
H -36.091395 40.169840 -35.098461
12
Step 551
C -35.166330 39.455134 -38.605952
C -35.173834 41.786084 -35.436394
C -39.915356 39.869116 -33.960909
C -40.320115 44.346809 -32.726053
C -38.033102 45.683969 -34.680026
C -37.540549 39.872503 -34.728757
H -35.206718 41.840049 -35.054349
H -34.849017 41.584251 -36.574269
H -27.022826 32.189204 -31.683337
H -41.810238 37.881110 -33.223579
H -32.780245 50.118467 -24.914118
H -36.091696 40.172708 -35.094838
12
Step 552
C -35.163697 39.450637 -38.610508
C -35.171896 41.786529 -35.436656
C -39.920879 39.865937 -33.961547
C -40.323804 44.351871 -32.724704
C -38.031522 45.691277 -34.679298
C -37.539439 39.868373 -34.726464
H -35.207257 41.838207 -35.061092
H -34.850155 41.578759 -36.576066
H -27.006252 32.172133 -31.681898
H -41.814271 37.875978 -33.225198
H -32.767359 50.133204 -24.896113
H -36.092183 40.175500 -35.091181
12
Step 553
C -35.161064 39.446141 -38.615063
C -35.169959 41.786976 -35.436892
C -39.926403 39.862757 -33.962184
C -40.327493 44.356932 -32.723355
C -38.029942 45.698584 -34.678571
C -37.538315 39.864246 -34.724174
H -35.207751 41.836329 -35.068297
H -34.851329 41.573280 -36.577728
H -26.989678 32.155062 -31.680459
H -41.818300 37.870850 -33.226818
H -32.754472 50.147941 -24.878107
H -36.092848 40.178230 -35.087493
12
Step 554
C -35.158432 39.441648 -38.619615
C -35.168019 41.787423 -35.437122
C -39.931929 39.859578 -33.962821
C -40.331182 44.361994 -32.722006
C -38.028362 45.705892 -34.677843
C -37.537176 39.860122 -34.721887
H -35.208220 41.834443 -35.075731
H -34.852536 41.567814 -36.579259
H -26.973103 32.137990 -31.679019
H -41.822324 37.865727 -33.228440
H -32.741586 50.162677 -24.860102
H -36.093684 40.180904 -35.083773
12
Step 555
C -35.155799 39.437157 -38.624165
C -35.166076 41.787865 -35.437371
C -39.937456 39.856398 -33.963458
C -40.334871 44.367055 -32.720657
C -38.026782 45.713199 -34.677115
C -37.536023 39.856001 -34.719603
H -35.208700 41.832590 -35.083074
H -34.853772 41.562363 -36.580671
H -26.956529 32.120919 -31.677580
H -41.826344 37.860609 -33.230063
H -32.728699 50.177414 -24.842097
H -36.094688 40.183530 -35.080023
12
Step 556
C -35.153166 39.432668 -38.628713
C -35.164125 41.788299 -35.437670
C -39.942985 39.853217 -33.964094
C -40.338560 44.372116 -32.719308
C -38.025202 45.720506 -34.676387
C -37.534856 39.851882 -34.717322
H -35.209238 41.830813 -35.089960
H -34.855035 41.556925 -36.581977
H -26.939955 32.103848 -31.676141
H -41.830360 37.855496 -33.231688
H -32.715812 50.192150 -24.824092
H -36.095857 40.186111 -35.076242
12
Step 557
C -35.150533 39.428180 -38.633260
C -35.162162 41.788722 -35.438045
C -39.948515 39.850037 -33.964730
C -40.342249 44.377177 -32.717960
C -38.023622 45.727814 -34.675659
C -37.533674 39.847766 -34.715044
H -35.209889 41.829151 -35.096049
H -34.856319 41.551502 -36.583191
H -26.923380 32.086776 -31.674701
H -41.834371 37.850387 -33.233315
H -32.702926 50.206887 -24.806087
H -36.097187 40.188651 -35.072433
12
Step 558
C -35.147900 39.423693 -38.637804
C -35.160182 41.789130 -35.438524
C -39.954047 39.846856 -33.965365
C -40.345937 44.382238 -32.716611
C -38.022043 45.735121 -34.674931
C -37.532479 39.843653 -34.712768
H -35.210711 41.827638 -35.101009
H -34.857623 41.546092 -36.584324
H -26.906806 32.069705 -31.673262
H -41.838378 37.845284 -33.234943
H -32.690039 50.221623 -24.788081
H -36.098676 40.191151 -35.068595
12
Step 559
C -35.145267 39.419209 -38.642346
C -35.158182 41.789521 -35.439125
C -39.959580 39.843675 -33.966000
C -40.349626 44.387298 -32.715263
C -38.020463 45.742427 -34.674203
C -37.531271 39.839543 -34.710496
H -35.211755 41.826296 -35.104601
H -34.858944 41.540695 -36.585386
H -26.890231 32.052634 -31.671823
H -41.842381 37.840185 -33.236573
H -32.677153 50.236360 -24.770076
H -36.100320 40.193613 -35.064730
12
Step 560
C -35.142634 39.414725 -38.646887
C -35.156159 41.789894 -35.439860
C -39.965114 39.840493 -33.966634
C -40.353314 44.392359 -32.713914
C -38.018883 45.749734 -34.673475
C -37.530049 39.835435 -34.708225
H -35.213061 41.825139 -35.106674
H -34.860279 41.535311 -36.586386
H -26.873657 32.035563 -31.670383
H -41.846379 37.835092 -33.238204
H -32.664266 50.251096 -24.752071
H -36.102116 40.196038 -35.060840
12
Step 561
C -35.140001 39.410244 -38.651425
C -35.154110 41.790250 -35.440734
C -39.970649 39.837311 -33.967268
C -40.357002 44.397420 -32.712566
C -38.017303 45.757041 -34.672746
C -37.528815 39.831330 -34.705958
H -35.214652 41.824165 -35.107180
H -34.861627 41.529941 -36.587325
H -26.857083 32.018491 -31.668944
H -41.850373 37.830003 -33.239838
H -32.651380 50.265833 -24.734066
H -36.104061 40.198428 -35.056924
12
Step 562
C -35.137368 39.405764 -38.655962
C -35.152035 41.790590 -35.441741
C -39.976185 39.834129 -33.967901
C -40.360690 44.402481 -32.711218
C -38.015724 45.764347 -34.672018
C -37.527568 39.827228 -34.703693
H -35.216531 41.823367 -35.106182
H -34.862988 41.524586 -36.588201
H -26.840508 32.001420 -31.667505
H -41.854363 37.824919 -33.241472
H -32.638493 50.280570 -24.716061
H -36.106153 40.200781 -35.052986
12
Step 563
C -35.134735 39.401285 -38.660497
C -35.149936 41.790913 -35.442868
C -39.981723 39.830947 -33.968535
C -40.364378 44.407542 -32.709870
C -38.014145 45.771653 -34.671289
C -37.526308 39.823128 -34.701430
H -35.218677 41.822724 -35.103845
H -34.864365 41.519247 -36.589005
H -26.823934 31.984349 -31.666065
H -41.858348 37.819840 -33.243109
H -32.625607 50.295306 -24.698055
H -36.108389 40.203096 -35.049025
12
Step 564
C -35.132103 39.396808 -38.665029
C -35.147817 41.791223 -35.444096
C -39.987261 39.827764 -33.969167
C -40.368066 44.412602 -32.708523
C -38.012565 45.778959 -34.670560
C -37.525037 39.819031 -34.699169
H -35.221050 41.822211 -35.100411
H -34.865758 41.513926 -36.589727
H -26.807360 31.967277 -31.664626
H -41.862329 37.814766 -33.244747
H -32.612720 50.310043 -24.680050
H -36.110768 40.205373 -35.045044
12
Step 565
C -35.129470 39.392332 -38.669560
C -35.145681 41.791522 -35.445397
C -39.992800 39.824581 -33.969800
C -40.371753 44.417663 -32.707175
C -38.010986 45.786265 -34.669831
C -37.523753 39.814938 -34.696910
H -35.223586 41.821800 -35.096211
H -34.867170 41.508625 -36.590354
H -26.790785 31.950206 -31.663187
H -41.866306 37.809697 -33.246387
H -32.599833 50.324779 -24.662045
H -36.113285 40.207609 -35.041043
12
Step 566
C -35.126837 39.387859 -38.674088
C -35.143536 41.791811 -35.446746
C -39.998341 39.821398 -33.970432
C -40.375440 44.422724 -32.705828
C -38.009408 45.793570 -34.669102
C -37.522458 39.810847 -34.694654
H -35.226211 41.821461 -35.091579
H -34.868604 41.503347 -36.590875
H -26.774211 31.933135 -31.661747
H -41.870278 37.804634 -33.248028
H -32.586947 50.339516 -24.644040
H -36.115938 40.209803 -35.037026
12
Step 567
C -35.124204 39.383387 -38.678614
C -35.141388 41.792093 -35.448113
C -40.003882 39.818215 -33.971064
C -40.379127 44.427785 -32.704481
C -38.007829 45.800876 -34.668373
C -37.521152 39.806759 -34.692400
H -35.228847 41.821168 -35.086866
H -34.870064 41.498092 -36.591272
H -26.757636 31.916064 -31.660308
H -41.874246 37.799575 -33.249671
H -32.574060 50.354252 -24.626035
H -36.118726 40.211949 -35.032992
12
Step 568
C -35.121571 39.378918 -38.683138
C -35.139243 41.792371 -35.449474
C -40.009424 39.815031 -33.971695
C -40.382813 44.432846 -32.703135
C -38.006251 45.808181 -34.667643
C -37.519834 39.802674 -34.690148
H -35.231412 41.820903 -35.082387
H -34.871554 41.492864 -36.591535
H -26.741062 31.898992 -31.658868
H -41.878210 37.794521 -33.251316
H -32.561174 50.368989 -24.608029
H -36.121649 40.214039 -35.028945
12
Step 569
C -35.118938 39.374450 -38.687659
C -35.137105 41.792645 -35.450809
C -40.014966 39.811847 -33.972327
C -40.386499 44.437907 -32.701788
C -38.004673 45.815486 -34.666913
C -37.518506 39.798593 -34.687897
H -35.233846 41.820657 -35.078368
H -34.873073 41.487664 -36.591656
H -26.724488 31.881921 -31.657429
H -41.882169 37.789472 -33.252962
H -32.548287 50.383725 -24.590024
H -36.124711 40.216059 -35.024884
12
Step 570
C -35.116304 39.369985 -38.692178
C -35.134978 41.792917 -35.452110
C -40.020510 39.808662 -33.972958
C -40.390185 44.442968 -32.700442
C -38.003095 45.822791 -34.666183
C -37.517166 39.794515 -34.685648
H -35.236110 41.820431 -35.074928
H -34.874623 41.482490 -36.591639
H -26.707913 31.864850 -31.655990
H -41.886124 37.784429 -33.254610
H -32.535401 50.398462 -24.572019
H -36.127917 40.217993 -35.020809
12
Step 571
C -35.113671 39.365522 -38.696695
C -35.132863 41.793188 -35.453364
C -40.026054 39.805477 -33.973589
C -40.393871 44.448030 -32.699097
C -38.001518 45.830095 -34.665452
C -37.515817 39.790440 -34.683401
H -35.238161 41.820226 -35.072202
H -34.876199 41.477341 -36.591495
H -26.691339 31.847779 -31.654550
H -41.890074 37.779390 -33.256260
H -32.522514 50.413199 -24.554014
H -36.131272 40.219826 -35.016720
12
Step 572
C -35.111038 39.361061 -38.701208
C -35.130766 41.793458 -35.454560
C -40.031599 39.802292 -33.974219
C -40.397556 44.453091 -32.697751
C -37.999941 45.837400 -34.664721
C -37.514457 39.786369 -34.681156
H -35.239956 41.820048 -35.070295
H -34.877797 41.472214 -36.591238
H -26.674765 31.830707 -31.653111
H -41.894020 37.774357 -33.257912
H -32.509628 50.427935 -24.536008
H -36.134782 40.221541 -35.012615
12
Step 573
C -35.108404 39.356603 -38.705720
C -35.128686 41.793730 -35.455695
C -40.037144 39.799106 -33.974850
C -40.401240 44.458153 -32.696406
C -37.998365 45.844704 -34.663990
C -37.513087 39.782302 -34.678911
H -35.241473 41.819907 -35.069254
H -34.879416 41.467108 -36.590878
H -26.658190 31.813636 -31.651672
H -41.897961 37.769330 -33.259565
H -32.496741 50.442672 -24.518003
H -36.138451 40.223124 -35.008496
12
Step 574
C -35.105770 39.352146 -38.710229
C -35.126625 41.794002 -35.456766
C -40.042690 39.795920 -33.975480
C -40.404924 44.463215 -32.695062
C -37.996789 45.852007 -34.663259
C -37.511708 39.778238 -34.676668
H -35.242694 41.819808 -35.069105
H -34.881051 41.462022 -36.590424
H -26.641616 31.796565 -31.650232
H -41.901898 37.764307 -33.261219
H -32.483854 50.457408 -24.499998
H -36.142281 40.224564 -35.004361
12
Step 575
C -35.103137 39.347692 -38.714735
C -35.124585 41.794275 -35.457771
C -40.048236 39.792734 -33.976110
C -40.408608 44.468277 -32.693718
C -37.995213 45.859311 -34.662527
C -37.510320 39.774178 -34.674426
H -35.243606 41.819759 -35.069864
H -34.882702 41.456956 -36.589882
H -26.625041 31.779493 -31.648793
H -41.905830 37.759290 -33.262876
H -32.470968 50.472145 -24.481993
H -36.146272 40.225855 -35.000212
12
Step 576
C -35.100503 39.343240 -38.719239
C -35.122565 41.794550 -35.458709
C -40.053783 39.789548 -33.976740
C -40.412291 44.473339 -32.692374
C -37.993638 45.866614 -34.661794
C -37.508924 39.770121 -34.672185
H -35.244199 41.819762 -35.071538
H -34.884366 41.451910 -36.589256
H -26.608467 31.762422 -31.647354
H -41.909758 37.754278 -33.264534
H -32.458081 50.486881 -24.463988
H -36.150420 40.226991 -34.996048
12
Step 577
C -35.097869 39.338791 -38.723740
C -35.120567 41.794825 -35.459580
C -40.059330 39.786360 -33.977370
C -40.415974 44.478402 -32.691030
C -37.992063 45.873917 -34.661062
C -37.507520 39.766067 -34.669945
H -35.244467 41.819820 -35.074119
H -34.886043 41.446884 -36.588547
H -26.591893 31.745351 -31.645914
H -41.913681 37.749272 -33.266194
H -32.445195 50.501618 -24.445982
H -36.154723 40.227976 -34.991871
12
Step 578
C -35.095235 39.334343 -38.728238
C -35.118591 41.795101 -35.460386
C -40.064878 39.783173 -33.977999
C -40.419656 44.483465 -32.689688
C -37.990489 45.881219 -34.660328
C -37.506108 39.762017 -34.667705
H -35.244408 41.819932 -35.077593
H -34.887732 41.441881 -36.587753
H -26.575318 31.728280 -31.644475
H -41.917600 37.744271 -33.267856
H -32.432308 50.516355 -24.427977
H -36.159172 40.228812 -34.987682
12
Step 579
C -35.092601 39.329898 -38.732734
C -35.116636 41.795377 -35.461131
C -40.070426 39.779985 -33.978629
C -40.423337 44.488528 -32.688345
C -37.988916 45.888521 -34.659595
C -37.504689 39.757970 -34.665466
H -35.244026 41.820097 -35.081929
H -34.889435 41.436903 -36.586870
H -26.558744 31.711208 -31.643036
H -41.921514 37.739275 -33.269519
H -32.419422 50.531091 -24.409972
H -36.163758 40.229508 -34.983481
12
Step 580
C -35.089967 39.325455 -38.737228
C -35.114703 41.795652 -35.461817
C -40.075974 39.776797 -33.979258
C -40.427018 44.493591 -32.687003
C -37.987343 45.895823 -34.658861
C -37.503264 39.753926 -34.663228
H -35.243330 41.820311 -35.087090
H -34.891152 41.431951 -36.585892
H -26.542170 31.694137 -31.641596
H -41.925424 37.734285 -33.271184
H -32.406535 50.545828 -24.391967
H -36.168470 40.230076 -34.979271
12
Step 581
C -35.087333 39.321014 -38.741719
C -35.112789 41.795925 -35.462449
C -40.081522 39.773608 -33.979888
C -40.430699 44.498655 -32.685662
C -37.985771 45.903124 -34.658126
C -37.501833 39.749884 -34.660990
H -35.242333 41.820569 -35.093017
H -34.892884 41.427031 -36.584811
H -26.525595 31.677066 -31.640157
H -41.929329 37.729301 -33.272851
H -32.393649 50.560564 -24.373962
H -36.173295 40.230533 -34.975055
12
Step 582
C -35.084699 39.316575 -38.746207
C -35.110894 41.796196 -35.463037
C -40.087070 39.770419 -33.980517
C -40.434378 44.503718 -32.684321
C -37.984199 45.910425 -34.657391
C -37.500397 39.745845 -34.658752
H -35.241066 41.820867 -35.099625
H -34.894633 41.422145 -36.583617
H -26.509021 31.659994 -31.638718
H -41.933229 37.724321 -33.274519
H -32.380762 50.575301 -24.355956
H -36.178218 40.230894 -34.970834
12
Step 583
C -35.082065 39.312138 -38.750693
C -35.109013 41.796463 -35.463597
C -40.092619 39.767230 -33.981146
C -40.438058 44.508783 -32.682980
C -37.982628 45.917726 -34.656656
C -37.498957 39.741807 -34.656515
H -35.239596 41.821208 -35.106719
H -34.896401 41.417300 -36.582297
H -26.492446 31.642923 -31.637278
H -41.937125 37.719347 -33.276190
H -32.367875 50.590037 -24.337951
H -36.183227 40.231176 -34.966611
12
Step 584
C -35.079431 39.307703 -38.755177
C -35.107142 41.796723 -35.464136
C -40.098167 39.764040 -33.981775
C -40.441736 44.513847 -32.681641
C -37.981057 45.925026 -34.655919
C -37.497513 39.737772 -34.654278
H -35.237955 41.821592 -35.114203
H -34.898187 41.412498 -36.580847
H -26.475872 31.625852 -31.635839
H -41.941016 37.714379 -33.277862
H -32.354989 50.604774 -24.319946
H -36.188305 40.231397 -34.962390
12
Step 585
C -35.076797 39.303269 -38.759659
C -35.105278 41.796976 -35.464671
C -40.103715 39.760850 -33.982404
C -40.445414 44.518912 -32.680301
C -37.979487 45.932326 -34.655183
C -37.496066 39.733738 -34.652040
H -35.236210 41.822027 -35.121894
H -34.899991 41.407742 -36.579269
H -26.459298 31.608781 -31.634400
H -41.944903 37.709416 -33.279536
H -32.342102 50.619510 -24.301941
H -36.193441 40.231570 -34.958173
12
Step 586
C -35.074163 39.298838 -38.764138
C -35.103412 41.797221 -35.465221
C -40.109263 39.757659 -33.983034
C -40.449091 44.523977 -32.678962
C -37.977918 45.939626 -34.654446
C -37.494616 39.729706 -34.649802
H -35.234454 41.822527 -35.129543
H -34.901808 41.403031 -36.577574
H -26.442723 31.591709 -31.632960
H -41.948785 37.704459 -33.281211
H -32.329216 50.634247 -24.283936
H -36.198626 40.231705 -34.953961
12
Step 587
C -35.071529 39.294408 -38.768616
C -35.101535 41.797454 -35.465811
C -40.114810 39.754468 -33.983663
C -40.452768 44.529043 -32.677624
C -37.976349 45.946925 -34.653708
C -37.493165 39.725674 -34.647565
H -35.232804 41.823115 -35.136844
H -34.903636 41.398363 -36.575774
H -26.426149 31.574638 -31.631521
H -41.952662 37.699507 -33.282888
H -32.316329 50.648984 -24.265930
H -36.203853 40.231807 -34.949755
12
Step 588
C -35.068895 39.289979 -38.773091
C -35.099639 41.797675 -35.466462
C -40.120357 39.751276 -33.984292
C -40.456444 44.534109 -32.676286
C -37.974781 45.954224 -34.652970
C -37.491712 39.721643 -34.645326
H -35.231378 41.823814 -35.143515
H -34.905469 41.393739 -36.573880
H -26.409575 31.557567 -31.630082
H -41.956535 37.694560 -33.284567
H -32.303443 50.663720 -24.247925
H -36.209119 40.231879 -34.945555
12
Step 589
C -35.066261 39.285551 -38.777565
C -35.097712 41.797882 -35.467199
C -40.125904 39.748084 -33.984922
C -40.460119 44.539175 -32.674949
C -37.973214 45.961522 -34.652231
C -37.490258 39.717613 -34.643087
H -35.230292 41.824652 -35.149275
H -34.907306 41.389158 -36.571901
H -26.393000 31.540495 -31.628642
H -41.960403 37.689619 -33.286248
H -32.290556 50.678457 -24.229920
H -36.214418 40.231923 -34.941363
12
Step 590
C -35.063627 39.281124 -38.782038
C -35.095746 41.798072 -35.468040
C -40.131450 39.744892 -33.985551
C -40.463793 44.544242 -32.673612
C -37.971647 45.968820 -34.651492
C -37.488804 39.713582 -34.640848
H -35.229651 41.825652 -35.153890
H -34.909143 41.384620 -36.569843
H -26.376426 31.523424 -31.627203
H -41.964267 37.684684 -33.287930
H -32.277670 50.693193 -24.211915
H -36.219747 40.231941 -34.937178
12
Step 591
C -35.060994 39.276698 -38.786509
C -35.093735 41.798244 -35.468999
C -40.136996 39.741699 -33.986181
C -40.467467 44.549309 -32.672276
C -37.970081 45.976118 -34.650752
C -37.487350 39.709553 -34.638607
H -35.229540 41.826836 -35.157181
H -34.910977 41.380125 -36.567711
H -26.359851 31.506353 -31.625764
H -41.968126 37.679754 -33.289615
H -32.264783 50.707930 -24.193910
H -36.225104 40.231933 -34.933001
12
Step 592
C -35.058360 39.272273 -38.790978
C -35.091673 41.798398 -35.470085
C -40.142540 39.738506 -33.986811
C -40.471140 44.554377 -32.670941
C -37.968516 45.983415 -34.650012
C -37.485896 39.705523 -34.636366
H -35.230008 41.828218 -35.159057
H -34.912809 41.375673 -36.565508
H -26.343277 31.489282 -31.624324
H -41.971981 37.674829 -33.291301
H -32.251896 50.722666 -24.175904
H -36.230486 40.231899 -34.928832
12
Step 593
C -35.055727 39.267849 -38.795447
C -35.089562 41.798532 -35.471295
C -40.148084 39.735312 -33.987441
C -40.474812 44.559445 -32.669606
C -37.966952 45.990712 -34.649271
C -37.484444 39.701492 -34.634124
H -35.231058 41.829802 -35.159543
H -34.914637 41.371267 -36.563231
H -26.326703 31.472210 -31.622885
H -41.975831 37.669910 -33.292989
H -32.239010 50.737403 -24.157899
H -36.235894 40.231837 -34.924670
12
Step 594
C -35.053094 39.263426 -38.799914
C -35.087404 41.798647 -35.472618
C -40.153627 39.732117 -33.988071
C -40.478484 44.564513 -32.668271
C -37.965388 45.998008 -34.648529
C -37.482992 39.697462 -34.631880
H -35.232639 41.831581 -35.158773
H -34.916462 41.366909 -36.560875
H -26.310128 31.455139 -31.621446
H -41.979676 37.664997 -33.294678
H -32.226123 50.752139 -24.139894
H -36.241328 40.231747 -34.920514
12
Step 595
C -35.050461 39.259003 -38.804379
C -35.085207 41.798745 -35.474038
C -40.159170 39.728922 -33.988702
C -40.482154 44.569582 -32.666938
C -37.963826 46.005304 -34.647787
C -37.481540 39.693432 -34.629636
H -35.234666 41.833538 -35.156952
H -34.918286 41.362600 -36.558434
H -26.293554 31.438068 -31.620006
H -41.983517 37.660089 -33.296369
H -32.213237 50.766876 -24.121889
H -36.246789 40.231626 -34.916363
12
Step 596
C -35.047828 39.254582 -38.808844
C -35.082979 41.798827 -35.475535
C -40.164711 39.725727 -33.989332
C -40.485824 44.574652 -32.665605
C -37.962264 46.012599 -34.647044
C -37.480089 39.689402 -34.627391
H -35.237035 41.835650 -35.154324
H -34.920109 41.358343 -36.555901
H -26.276980 31.420996 -31.618567
H -41.987354 37.655186 -33.298063
H -32.200350 50.781613 -24.103884
H -36.252281 40.231471 -34.912216
12
Step 597
C -35.045195 39.250161 -38.813307
C -35.080731 41.798897 -35.477087
C -40.170251 39.722531 -33.989963
C -40.489493 44.579721 -32.664272
C -37.960702 46.019894 -34.646300
C -37.478639 39.685373 -34.625145
H -35.239623 41.837892 -35.151155
H -34.921933 41.354142 -36.553268
H -26.260405 31.403925 -31.617128
H -41.991185 37.650289 -33.299757
H -32.187464 50.796349 -24.085878
H -36.257809 40.231276 -34.908069
12
Step 598
C -35.042562 39.245741 -38.817769
C -35.078472 41.798955 -35.478673
C -40.175790 39.719335 -33.990594
C -40.493162 44.584792 -32.662940
C -37.959142 46.027189 -34.645556
C -37.477190 39.681343 -34.622899
H -35.242297 41.840232 -35.147728
H -34.923760 41.350001 -36.550524
H -26.243831 31.386854 -31.615688
H -41.995013 37.645398 -33.301454
H -32.174577 50.811086 -24.067873
H -36.263375 40.231037 -34.903921
12
Step 599
C -35.039929 39.241322 -38.822229
C -35.076215 41.799006 -35.480268
C -40.181329 39.716138 -33.991225
C -40.496829 44.589862 -32.661609
C -37.957582 46.034483 -34.644812
C -37.475740 39.677314 -34.620651
H -35.244923 41.842636 -35.144318
H -34.925590 41.345923 -36.547664
H -26.227256 31.369783 -31.614249
H -41.998835 37.640512 -33.303152
H -32.161691 50.825822 -24.049868
H -36.268986 40.230749 -34.899770
12
Step 600
C -35.037297 39.236904 -38.826689
C -35.073966 41.799051 -35.481859
C -40.186866 39.712941 -33.991856
C -40.500496 44.594933 -32.660278
C -37.956023 46.041776 -34.644066
C -37.474291 39.673286 -34.618403
H -35.247411 41.845077 -35.141107
H -34.927423 41.341911 -36.544685
H -26.210682 31.352711 -31.612809
H -42.002654 37.635632 -33.304852
H -32.148804 50.840559 -24.031863
H -36.274645 40.230405 -34.895611
12
Step 601
C -35.034664 39.232487 -38.831147
C -35.071733 41.799093 -35.483432
C -40.192402 39.709743 -33.992488
C -40.504162 44.600005 -32.658948
C -37.954465 46.049069 -34.643320
C -37.472842 39.669258 -34.616155
H -35.249685 41.847535 -35.138242
H -34.929256 41.337962 -36.541593
H -26.194108 31.335640 -31.611370
H -42.006467 37.630757 -33.306554
H -32.135917 50.855295 -24.013858
H -36.280357 40.230002 -34.891444
12
Step 602
C -35.032031 39.228071 -38.835604
C -35.069520 41.799133 -35.484977
C -40.197937 39.706545 -33.993120
C -40.507827 44.605077 -32.657619
C -37.952908 46.056362 -34.642574
C -37.471392 39.665232 -34.613905
H -35.251678 41.849991 -35.135850
H -34.931087 41.334077 -36.538395
H -26.177533 31.318569 -31.609931
H -42.010277 37.625887 -33.308257
H -32.123031 50.870032 -23.995852
H -36.286127 40.229532 -34.887264
12
Step 603
C -35.029398 39.223655 -38.840060
C -35.067332 41.799174 -35.486484
C -40.203471 39.703346 -33.993752
C -40.511492 44.610149 -32.656290
C -37.951351 46.063654 -34.641827
C -37.469943 39.661206 -34.611656
H -35.253327 41.852424 -35.134045
H -34.932914 41.330255 -36.535097
H -26.160959 31.301497 -31.608491
H -42.014081 37.621023 -33.309963
H -32.110144 50.884769 -23.977847
H -36.291957 40.228991 -34.883071
12
Step 604
C -35.026766 39.219241 -38.844515
C -35.065175 41.799217 -35.487944
C -40.209004 39.700147 -33.994384
C -40.515155 44.615222 -32.654962
C -37.949796 46.070946 -34.641079
C -37.468493 39.657182 -34.609405
H -35.254583 41.854819 -35.132913
H -34.934735 41.326491 -36.531714
H -26.144384 31.284426 -31.607052
H -42.017882 37.616165 -33.311669
H -32.097258 50.899505 -23.959842
H -36.297851 40.228375 -34.878863
12
Step 605
C -35.024133 39.214827 -38.848969
C -35.063054 41.799265 -35.489348
C -40.214535 39.696947 -33.995016
C -40.518818 44.620296 -32.653635
C -37.948241 46.078238 -34.640331
C -37.467041 39.653161 -34.607154
H -35.255393 41.857154 -35.132552
H -34.936546 41.322780 -36.528258
H -26.127810 31.267355 -31.605613
H -42.021678 37.611312 -33.313378
H -32.084371 50.914242 -23.941837
H -36.303810 40.227681 -34.874638
12
Step 606
C -35.021500 39.210414 -38.853421
C -35.060970 41.799318 -35.490691
C -40.220065 39.693747 -33.995649
C -40.522481 44.625369 -32.652307
C -37.946686 46.085529 -34.639582
C -37.465589 39.649141 -34.604903
H -35.255726 41.859411 -35.133017
H -34.938346 41.319120 -36.524736
H -26.111236 31.250284 -31.604173
H -42.025470 37.606464 -33.315088
H -32.071485 50.928978 -23.923831
H -36.309836 40.226911 -34.870396
12
Step 607
C -35.018868 39.206001 -38.857873
C -35.058926 41.799379 -35.491968
C -40.225594 39.690546 -33.996282
C -40.526143 44.630443 -32.650980
C -37.945132 46.092820 -34.638833
C -37.464135 39.645124 -34.602652
H -35.255561 41.861577 -35.134339
H -34.940134 41.315510 -36.521153
H -26.094661 31.233212 -31.602734
H -42.029257 37.601621 -33.316800
H -32.058598 50.943715 -23.905826
H -36.315930 40.226065 -34.866137
12
Step 608
C -35.016235 39.201589 -38.862324
C -35.056925 41.799446 -35.493180
C -40.231122 39.687345 -33.996915
C -40.529805 44.635517 -32.649654
C -37.943578 46.100110 -34.638084
C -37.462680 39.641109 -34.600400
H -35.254885 41.863639 -35.136533
H -34.941910 41.311951 -36.517509
H -26.078087 31.216141 -31.601295
H -42.033040 37.596784 -33.318514
H -32.045712 50.958451 -23.887821
H -36.322091 40.225145 -34.861860
12
Step 609
C -35.013602 39.197178 -38.866775
C -35.054965 41.799522 -35.494326
C -40.236648 39.684143 -33.997548
C -40.533466 44.640591 -32.648327
C -37.942025 46.107401 -34.637334
C -37.461223 39.637097 -34.598149
H -35.253695 41.865589 -35.139603
H -34.943672 41.308444 -36.513803
H -26.061513 31.199070 -31.599855
H -42.036819 37.591952 -33.320229
H -32.032825 50.973188 -23.869816
H -36.328319 40.224156 -34.857565
12
Step 610
C -35.010970 39.192767 -38.871224
C -35.053047 41.799605 -35.495406
C -40.242173 39.680941 -33.998182
C -40.537127 44.645666 -32.647001
C -37.940472 46.114691 -34.636584
C -37.459763 39.633088 -34.595897
H -35.251993 41.867419 -35.143537
H -34.945421 41.304993 -36.510029
H -26.044938 31.181999 -31.598416
H -42.040594 37.587125 -33.321946
H -32.019938 50.987924 -23.851811
H -36.334614 40.223102 -34.853252
12
Step 611
C -35.008337 39.188357 -38.875674
C -35.051171 41.799695 -35.496425
C -40.247697 39.677738 -33.998816
C -40.540787 44.650741 -32.645675
C -37.938919 46.121981 -34.635834
C -37.458302 39.629082 -34.593645
H -35.249788 41.869126 -35.148308
H -34.947158 41.301602 -36.506179
H -26.028364 31.164927 -31.596977
H -42.044365 37.582303 -33.323664
H -32.007052 51.002661 -23.833805
H -36.340973 40.221987 -34.848922
12
Step 612
C -35.005705 39.183947 -38.880122
C -35.049335 41.799792 -35.497385
C -40.253220 39.674534 -33.999450
C -40.544447 44.655816 -32.644350
C -37.937367 46.129271 -34.635084
C -37.456838 39.625078 -34.591394
H -35.247099 41.870711 -35.153874
H -34.948882 41.298277 -36.502242
H -26.011789 31.147856 -31.595537
H -42.048131 37.577487 -33.325384
H -31.994165 51.017398 -23.815800
H -36.347397 40.220816 -34.844576
12
Step 613
C -35.003072 39.179537 -38.884570
C -35.047538 41.799894 -35.498292
C -40.258741 39.671331 -34.000084
C -40.548107 44.660891 -32.643025
C -37.935815 46.136560 -34.634333
C -37.455372 39.621078 -34.589143
H -35.243945 41.872177 -35.160192
H -34.950596 41.295028 -36.498203
H -25.995215 31.130785 -31.594098
H -42.051894 37.572675 -33.327106
H -31.981279 51.032134 -23.797795
H -36.353884 40.219594 -34.840214
12
Step 614
C -35.000440 39.175127 -38.889018
C -35.045776 41.799999 -35.499155
C -40.264260 39.668126 -34.000719
C -40.551766 44.665966 -32.641700
C -37.934264 46.143850 -34.633582
C -37.453903 39.617080 -34.586891
H -35.240373 41.873538 -35.167169
H -34.952299 41.291864 -36.494044
H -25.978641 31.113713 -31.592659
H -42.055652 37.567869 -33.328829
H -31.968392 51.046871 -23.779790
H -36.360437 40.218323 -34.835835
12
Step 615
C -34.997808 39.170717 -38.893466
C -35.044041 41.800103 -35.499989
C -40.269779 39.664921 -34.001354
C -40.555425 44.671041 -32.640375
C -37.932712 46.151139 -34.632830
C -37.452431 39.613084 -34.584640
H -35.236472 41.874832 -35.174632
H -34.953990 41.288790 -36.489760
H -25.962066 31.096642 -31.591219
H -42.059406 37.563067 -33.330554
H -31.955506 51.061607 -23.761785
H -36.367061 40.217001 -34.831440
12
Step 616
C -34.995175 39.166307 -38.897913
C -35.042328 41.800206 -35.500802
C -40.275296 39.661716 -34.001989
C -40.559084 44.676117 -32.639051
C -37.931162 46.158428 -34.632079
C -37.450956 39.609092 -34.582390
H -35.232297 41.876082 -35.182482
H -34.955669 41.285805 -36.485349
H -25.945492 31.079571 -31.589780
H -42.063157 37.558271 -33.332280
H -31.942619 51.076344 -23.743779
H -36.373758 40.215626 -34.827028
12
Step 617
C -34.992543 39.161897 -38.902360
C -35.040630 41.800304 -35.501607
C -40.280812 39.658510 -34.002624
C -40.562743 44.681193 -32.637726
C -37.929611 46.165717 -34.631327
C -37.449478 39.605102 -34.580139
H -35.227932 41.877322 -35.190561
H -34.957336 41.282908 -36.480815
H -25.928918 31.062500 -31.588341
H -42.066903 37.553480 -33.334008
H -31.929733 51.091080 -23.725774
H -36.380536 40.214193 -34.822598
12
Step 618
C -34.989911 39.157487 -38.906808
C -35.038939 41.800395 -35.502419
C -40.286326 39.655304 -34.003260
C -40.566402 44.686268 -32.636402
C -37.928060 46.173006 -34.630576
C -37.447996 39.601115 -34.577889
H -35.223483 41.878599 -35.198686
H -34.958988 41.280096 -36.476165
H -25.912343 31.045428 -31.586901
H -42.070646 37.548693 -33.335737
H -31.916846 51.105817 -23.707769
H -36.387398 40.212696 -34.818150
12
Step 619
C -34.987279 39.153077 -38.911255
C -35.037237 41.800472 -35.503263
C -40.291840 39.652097 -34.003895
C -40.570061 44.691344 -32.635077
C -37.926509 46.180295 -34.629825
C -37.446511 39.597131 -34.575639
H -35.219136 41.879992 -35.206548
H -34.960625 41.277366 -36.471401
H -25.895769 31.028357 -31.585462
H -42.074384 37.543912 -33.337467
H -31.903959 51.120553 -23.689764
H -36.394350 40.211132 -34.813682
12
Step 620
C -34.984647 39.148666 -38.915703
C -35.035508 41.800528 -35.504169
C -40.297352 39.648889 -34.004531
C -40.573720 44.696420 -32.633753
C -37.924958 46.187585 -34.629073
C -37.445023 39.593151 -34.573389
H -35.215106 41.881589 -35.213803
H -34.962250 41.274720 -36.466518
H -25.879194 31.011286 -31.584023
H -42.078119 37.539135 -33.339200
H -31.891073 51.135290 -23.671759
H -36.401392 40.209499 -34.809196
12
Step 621
C -34.982015 39.144255 -38.920151
C -35.033735 41.800555 -35.505161
C -40.302862 39.645681 -34.005168
C -40.577379 44.701495 -32.632428
C -37.923407 46.194874 -34.628322
C -37.443530 39.589173 -34.571139
H -35.211584 41.883474 -35.220158
H -34.963865 41.272160 -36.461511
H -25.862620 30.994214 -31.582583
H -42.081850 37.534364 -33.340933
H -31.878186 51.150027 -23.653753
H -36.408525 40.207798 -34.804692
12
Step 622
C -34.979383 39.139843 -38.924600
C -35.031904 41.800548 -35.506260
C -40.308372 39.642473 -34.005804
C -40.581038 44.706571 -32.631103
C -37.921855 46.202163 -34.627571
C -37.442034 39.585199 -34.568890
H -35.208730 41.885722 -35.225377
H -34.965470 41.269689 -36.456372
H -25.846046 30.977143 -31.581144
H -42.085577 37.529597 -33.342668
H -31.865300 51.164763 -23.635748
H -36.415746 40.206028 -34.800171
12
Step 623
C -34.976751 39.135431 -38.929048
C -35.030006 41.800500 -35.507480
C -40.313880 39.639264 -34.006441
C -40.584697 44.711646 -32.629778
C -37.920304 46.209452 -34.626820
C -37.440534 39.581229 -34.566641
H -35.206657 41.888390 -35.229301
H -34.967070 41.267310 -36.451094
H -25.829471 30.960072 -31.579705
H -42.089301 37.524835 -33.344405
H -31.852413 51.179500 -23.617743
H -36.423056 40.204190 -34.795635
12
Step 624
C -34.974120 39.131019 -38.933497
C -35.028037 41.800410 -35.508825
C -40.319387 39.636055 -34.007077
C -40.588357 44.716721 -32.628454
C -37.918752 46.216742 -34.626069
C -37.439030 39.577262 -34.564392
H -35.205408 41.891507 -35.231883
H -34.968664 41.265025 -36.445673
H -25.812897 30.943001 -31.578265
H -42.093021 37.520078 -33.346142
H -31.839527 51.194236 -23.599738
H -36.430451 40.202286 -34.791082
12
Step 625
C -34.971488 39.126606 -38.937947
C -35.025999 41.800276 -35.510293
C -40.324893 39.632845 -34.007714
C -40.592016 44.721797 -32.627129
C -37.917201 46.224031 -34.625318
C -37.437523 39.573298 -34.562144
H -35.204968 41.895078 -35.233157
H -34.970254 41.262835 -36.440110
H -25.796323 30.925929 -31.576826
H -42.096737 37.515326 -33.347882
H -31.826640 51.208973 -23.581733
H -36.437930 40.200315 -34.786515
12
Step 626
C -34.968856 39.122193 -38.942396
C -35.023896 41.800100 -35.511873
C -40.330398 39.629634 -34.008352
C -40.595676 44.726872 -32.625804
C -37.915649 46.231321 -34.624567
C -37.436012 39.569337 -34.559895
H -35.205275 41.899082 -35.233229
H -34.971836 41.260734 -36.434413
H -25.779748 30.908858 -31.575387
H -42.100450 37.510578 -33.349622
H -31.813754 51.223709 -23.563727
H -36.445489 40.198281 -34.781934
12
Step 627
C -34.966225 39.117780 -38.946846
C -35.021740 41.799887 -35.513549
C -40.335901 39.626423 -34.008989
C -40.599335 44.731947 -32.624479
C -37.914098 46.238610 -34.623816
C -37.434498 39.565380 -34.557647
H -35.206208 41.903472 -35.232283
H -34.973409 41.258720 -36.428593
H -25.763174 30.891787 -31.573947
H -42.104159 37.505835 -33.351364
H -31.800867 51.238446 -23.545722
H -36.453125 40.196185 -34.777339
12
Step 628
C -34.963593 39.113366 -38.951296
C -35.019545 41.799644 -35.515300
C -40.341404 39.623212 -34.009627
C -40.602995 44.737022 -32.623153
C -37.912546 46.245900 -34.623065
C -37.432981 39.561426 -34.555399
H -35.207610 41.908173 -35.230560
H -34.974969 41.256785 -36.422663
H -25.746599 30.874715 -31.572508
H -42.107864 37.501097 -33.353108
H -31.787980 51.253183 -23.527717
H -36.460836 40.194031 -34.772731
12
Step 629
C -34.960962 39.108953 -38.955746
C -35.017327 41.799379 -35.517099
C -40.346905 39.620000 -34.010264
C -40.606655 44.742097 -32.621828
C -37.910994 46.253190 -34.622314
C -37.431460 39.557475 -34.553150
H -35.209269 41.913076 -35.228378
H -34.976513 41.254926 -36.416632
H -25.730025 30.857644 -31.571069
H -42.111566 37.496363 -33.354852
H -31.775094 51.267919 -23.509712
H -36.468616 40.191822 -34.768111
12
Step 630
C -34.958330 39.104539 -38.960196
C -35.015106 41.799101 -35.518919
C -40.352406 39.616788 -34.010902
C -40.610314 44.747172 -32.620503
C -37.909442 46.260479 -34.621564
C -37.429937 39.553527 -34.550902
H -35.210974 41.918071 -35.226048
H -34.978038 41.253141 -36.410510
H -25.713451 30.840573 -31.569629
H -42.115264 37.491634 -33.356598
H -31.762207 51.282656 -23.491707
H -36.476461 40.189559 -34.763478
12
Step 631
C -34.955699 39.100126 -38.964645
C -35.012895 41.798819 -35.520738
C -40.357906 39.613575 -34.011540
C -40.613974 44.752247 -32.619178
C -37.907890 46.267769 -34.620813
C -37.428412 39.549582 -34.548654
H -35.212554 41.923063 -35.223820
H -34.979541 41.251429 -36.404303
H -25.696876 30.823502 -31.568190
H -42.118959 37.486910 -33.358346
H -31.749321 51.297392 -23.473701
H -36.484368 40.187245 -34.758835
12
Step 632
C -34.953067 39.095712 -38.969095
C -35.010702 41.798536 -35.522548
C -40.363404 39.610361 -34.012178
C -40.617634 44.757322 -32.617852
C -37.906338 46.275059 -34.620062
C -37.426884 39.545639 -34.546406
H -35.213933 41.928011 -35.221805
H -34.981021 41.249790 -36.398009
H -25.680302 30.806430 -31.566750
H -42.122650 37.482190 -33.360094
H -31.736434 51.312129 -23.455696
H -36.492331 40.184881 -34.754183
12
Step 633
C -34.950436 39.091299 -38.973544
C -35.008533 41.798256 -35.524338
C -40.368902 39.607148 -34.012817
C -40.621295 44.762397 -32.616527
C -37.904786 46.282348 -34.619312
C -37.425353 39.541700 -34.544158
H -35.215039 41.932865 -35.220118
H -34.982480 41.248231 -36.391625
H -25.663728 30.789359 -31.565311
H -42.126338 37.477475 -33.361845
H -31.723548 51.326865 -23.437691
H -36.500347 40.182469 -34.749521
12
Step 634
C -34.947804 39.086886 -38.977992
C -35.006395 41.797984 -35.526098
C -40.374400 39.603933 -34.013455
C -40.624955 44.767472 -32.615201
C -37.903233 46.289638 -34.618561
C -37.423821 39.537762 -34.541909
H -35.215779 41.937558 -35.218906
H -34.983920 41.246751 -36.385151
H -25.647153 30.772288 -31.563872
H -42.130023 37.472764 -33.363596
H -31.710661 51.341602 -23.419686
H -36.508412 40.180009 -34.744850
12
Step 635
C -34.945173 39.082474 -38.982440
C -35.004297 41.797727 -35.527810
C -40.379896 39.600718 -34.014094
C -40.628615 44.772547 -32.613876
C -37.901681 46.296928 -34.617811
C -37.422288 39.533828 -34.539661
H -35.216044 41.942007 -35.218347
H -34.985344 41.245347 -36.378596
H -25.630579 30.755216 -31.562432
H -42.133704 37.468058 -33.365349
H -31.697774 51.356338 -23.401681
H -36.516523 40.177501 -34.740170
12
Step 636
C -34.942541 39.078062 -38.986888
C -35.002246 41.797493 -35.529463
C -40.385392 39.597503 -34.014732
C -40.632275 44.777622 -32.612550
C -37.900129 46.304218 -34.617061
C -37.420753 39.529895 -34.537412
H -35.215742 41.946137 -35.218585
H -34.986755 41.244009 -36.371973
H -25.614004 30.738145 -31.560993
H -42.137381 37.463356 -33.367103
H -31.684888 51.371075 -23.383675
H -36.524678 40.174944 -34.735482
12
Step 637
C -34.939910 39.073650 -38.991334
C -35.000247 41.797287 -35.531046
C -40.390887 39.594287 -34.015371
C -40.635935 44.782697 -32.611225
C -37.898576 46.311508 -34.616310
C -37.419217 39.525965 -34.535162
H -35.214816 41.949895 -35.219717
H -34.988155 41.242729 -36.365299
H -25.597430 30.721074 -31.559554
H -42.141055 37.458659 -33.368858
H -31.672001 51.385812 -23.365670
H -36.532873 40.172338 -34.730786
12
Step 638
C -34.937279 39.069239 -38.995781
C -34.998302 41.797113 -35.532555
C -40.396381 39.591071 -34.016010
C -40.639596 44.787772 -32.609899
C -37.897024 46.318798 -34.615560
C -37.417681 39.522036 -34.532912
H -35.213230 41.953244 -35.221800
H -34.989548 41.241495 -36.358588
H -25.580856 30.704003 -31.558114
H -42.144726 37.453967 -33.370615
H -31.659115 51.400548 -23.347665
H -36.541107 40.169683 -34.726081
12
Step 639
C -34.934647 39.064829 -39.000226
C -34.996412 41.796974 -35.533985
C -40.401875 39.587854 -34.016649
C -40.643256 44.792846 -32.608574
C -37.895471 46.326088 -34.614809
C -37.416145 39.518109 -34.530662
H -35.210971 41.956162 -35.224857
H -34.990935 41.240301 -36.351855
H -25.564281 30.686931 -31.556675
H -42.148392 37.449279 -33.372373
H -31.646228 51.415285 -23.329660
H -36.549373 40.166983 -34.721369
12
Step 640
C -34.932016 39.060419 -39.004671
C -34.994578 41.796871 -35.535337
C -40.407368 39.584637 -34.017287
C -40.646916 44.797921 -32.607248
C -37.893919 46.333378 -34.614059
C -37.414609 39.514183 -34.528411
H -35.208042 41.958641 -35.228884
H -34.992315 41.239139 -36.345109
H -25.547707 30.669860 -31.555236
H -42.152056 37.444597 -33.374132
H -31.633342 51.430021 -23.311654
H -36.557668 40.164240 -34.716651
12
Step 641
C -34.929384 39.056010 -39.009115
C -34.992796 41.796804 -35.536612
C -40.412860 39.581419 -34.017927
C -40.650577 44.802996 -32.605922
C -37.892366 46.340668 -34.613309
C -37.413074 39.510257 -34.526159
H -35.204466 41.960686 -35.233846
H -34.993689 41.238007 -36.338355
H -25.531133 30.652789 -31.553796
H -42.155715 37.439918 -33.375893
H -31.620455 51.444758 -23.293649
H -36.565985 40.161461 -34.711929
12
Step 642
C -34.926753 39.051601 -39.013559
C -34.991064 41.796770 -35.537817
C -40.418351 39.578201 -34.018566
C -40.654237 44.808070 -32.604596
C -37.890814 46.347958 -34.612559
C -37.411540 39.506333 -34.523907
H -35.200289 41.962325 -35.239667
H -34.995055 41.236902 -36.331599
H -25.514558 30.635717 -31.552357
H -42.159372 37.435245 -33.377656
H -31.607569 51.459494 -23.275644
H -36.574316 40.158652 -34.707205
12
Step 643
C -34.924121 39.047192 -39.018002
C -34.989377 41.796766 -35.538961
C -40.423842 39.574982 -34.019205
C -40.657898 44.813145 -32.603271
C -37.889261 46.355248 -34.611809
C -37.410008 39.502408 -34.521653
H -35.195586 41.963613 -35.246222
H -34.996409 41.235819 -36.324848
H -25.497984 30.618646 -31.550918
H -42.163024 37.430576 -33.379419
H -31.594682 51.474231 -23.257639
H -36.582654 40.155822 -34.702482
12
Step 644
C -34.921490 39.042784 -39.022444
C -34.987724 41.796783 -35.540058
C -40.429332 39.571763 -34.019844
C -40.661559 44.818220 -32.601945
C -37.887708 46.362538 -34.611059
C -37.408478 39.498483 -34.519398
H -35.190462 41.964631 -35.253348
H -34.997745 41.234759 -36.318100
H -25.481409 30.601575 -31.549478
H -42.166673 37.425912 -33.381184
H -31.581795 51.488967 -23.239634
H -36.590990 40.152978 -34.697761
12
Step 645
C -34.918858 39.038376 -39.026886
C -34.986098 41.796813 -35.541125
C -40.434821 39.568543 -34.020483
C -40.665220 44.823294 -32.600619
C -37.886155 46.369828 -34.610309
C -37.406951 39.494557 -34.517142
H -35.185042 41.965480 -35.260850
H -34.999061 41.233726 -36.311352
H -25.464835 30.584504 -31.548039
H -42.170319 37.421253 -33.382950
H -31.568909 51.503704 -23.221628
H -36.599320 40.150127 -34.693044
12
Step 646
C -34.916227 39.033969 -39.031327
C -34.984488 41.796848 -35.542176
C -40.440309 39.565322 -34.021123
C -40.668880 44.828369 -32.599293
C -37.884602 46.377119 -34.609559
C -37.405427 39.490631 -34.514885
H -35.179435 41.966248 -35.268565
H -35.000353 41.232723 -36.304599
H -25.448261 30.567432 -31.546600
H -42.173961 37.416598 -33.384718
H -31.556022 51.518441 -23.203623
H -36.607637 40.147275 -34.688332
12
Step 647
C -34.913595 39.029562 -39.035768
C -34.982891 41.796885 -35.543217
C -40.445796 39.562102 -34.021762
C -40.672541 44.833443 -32.597967
C -37.883049 46.384409 -34.608809
C -37.403907 39.486702 -34.512626
H -35.173690 41.966967 -35.276429
H -35.001622 41.231756 -36.297831
H -25.431686 30.550361 -31.545160
H -42.177599 37.411949 -33.386487
H -31.543136 51.533177 -23.185618
H -36.615935 40.144427 -34.683625
12
Step 648
C -34.910964 39.025156 -39.040208
C -34.981302 41.796922 -35.544252
C -40.451283 39.558880 -34.022402
C -40.676202 44.838518 -32.596641
C -37.881496 46.391699 -34.608059
C -37.402392 39.482772 -34.510366
H -35.167848 41.967659 -35.284396
H -35.002870 41.230831 -36.291038
H -25.415112 30.533290 -31.543721
H -42.181234 37.407304 -33.388257
H -31.530249 51.547914 -23.167613
H -36.624210 40.141589 -34.678925
12
Step 649
C -34.908333 39.020750 -39.044648
C -34.979709 41.796947 -35.545300
C -40.456768 39.555658 -34.023042
C -40.679863 44.843592 -32.595315
C -37.879943 46.398989 -34.607309
C -37.400881 39.478840 -34.508105
H -35.162067 41.968451 -35.292263
H -35.004102 41.229961 -36.284205
H -25.398538 30.516219 -31.542282
H -42.184864 37.402664 -33.390029
H -31.517363 51.562650 -23.149608
H -36.632457 40.138763 -34.674231
12
Step 650
C -34.905701 39.016344 -39.049087
C -34.978099 41.796948 -35.546378
C -40.462252 39.552436 -34.023681
C -40.683524 44.848667 -32.593989
C -37.878391 46.406279 -34.606559
C -37.399375 39.474905 -34.505842
H -35.156485 41.969463 -35.299853
H -35.005318 41.229157 -36.277313
H -25.381963 30.499147 -31.540842
H -42.188491 37.398029 -33.391802
H -31.504476 51.577387 -23.131602
H -36.640674 40.135955 -34.669545
12
Step 651
C -34.903070 39.011938 -39.053526
C -34.976460 41.796913 -35.547503
C -40.467735 39.549213 -34.024321
C -40.687185 44.853741 -32.592663
C -37.876838 46.413570 -34.605809
C -37.397874 39.470968 -34.503577
H -35.151251 41.970837 -35.306969
H -35.006521 41.228434 -36.270346
H -25.365389 30.482076 -31.539403
H -42.192115 37.393399 -33.393577
H -31.491590 51.592123 -23.113597
H -36.648856 40.133166 -34.664866
12
Step 652
C -34.900438 39.007533 -39.057964
C -34.974776 41.796826 -35.548697
C -40.473217 39.545990 -34.024961
C -40.690846 44.858816 -32.591337
C -37.875285 46.420860 -34.605059
C -37.396380 39.467027 -34.501311
H -35.146547 41.972758 -35.313368
H -35.007709 41.227800 -36.263293
H -25.348814 30.465005 -31.537964
H -42.195734 37.388774 -33.395353
H -31.478703 51.606860 -23.095592
H -36.657001 40.130400 -34.660196
12
Step 653
C -34.897807 39.003129 -39.062402
C -34.973034 41.796670 -35.549979
C -40.478698 39.542766 -34.025601
C -40.694506 44.863890 -32.590011
C -37.873732 46.428150 -34.604309
C -37.394891 39.463083 -34.499042
H -35.142541 41.975406 -35.318822
H -35.008883 41.227259 -36.256147
H -25.332240 30.447933 -31.536524
H -42.199349 37.384155 -33.397131
H -31.465816 51.621597 -23.077587
H -36.665105 40.127663 -34.655535
12
Step 654
C -34.895176 38.998724 -39.066839
C -34.971229 41.796438 -35.551356
C -40.484177 39.539541 -34.026242
C -40.698167 44.868965 -32.588685
C -37.872179 46.435440 -34.603559
C -37.393409 39.459136 -34.496773
H -35.139295 41.978867 -35.323252
H -35.010040 41.226820 -36.248901
H -25.315666 30.430862 -31.535085
H -42.202961 37.379540 -33.398910
H -31.452930 51.636333 -23.059582
H -36.673164 40.124957 -34.650883
12
Step 655
C -34.892544 38.994320 -39.071276
C -34.969360 41.796127 -35.552830
C -40.489655 39.536316 -34.026882
C -40.701827 44.874040 -32.587359
C -37.870626 46.442730 -34.602808
C -37.391933 39.455184 -34.494501
H -35.136816 41.983172 -35.326649
H -35.011180 41.226487 -36.241549
H -25.299091 30.413791 -31.533646
H -42.206569 37.374931 -33.400690
H -31.440043 51.651070 -23.041576
H -36.681175 40.122287 -34.646242
12
Step 656
C -34.889913 38.989917 -39.075713
C -34.967432 41.795739 -35.554396
C -40.495132 39.533090 -34.027522
C -40.705488 44.879114 -32.586034
C -37.869074 46.450020 -34.602058
C -37.390463 39.451229 -34.492228
H -35.135058 41.988301 -35.329075
H -35.012301 41.226259 -36.234095
H -25.282517 30.396720 -31.532206
H -42.210173 37.370326 -33.402472
H -31.427157 51.665806 -23.023571
H -36.689136 40.119657 -34.641610
12
Step 657
C -34.887282 38.985513 -39.080149
C -34.965451 41.795279 -35.556042
C -40.500607 39.529864 -34.028163
C -40.709148 44.884189 -32.584708
C -37.867521 46.457310 -34.601308
C -37.389001 39.447270 -34.489953
H -35.133934 41.994183 -35.330641
H -35.013399 41.226131 -36.226546
H -25.265943 30.379648 -31.530767
H -42.213773 37.365727 -33.404256
H -31.414270 51.680543 -23.005566
H -36.697043 40.117071 -34.636990
12
Step 658
C -34.884651 38.981110 -39.084584
C -34.963430 41.794759 -35.557754
C -40.506081 39.526638 -34.028803
C -40.712808 44.889264 -32.583383
C -37.865969 46.464600 -34.600557
C -37.387545 39.443306 -34.487676
H -35.133309 42.000689 -35.331526
H -35.014474 41.226093 -36.218915
H -25.249368 30.362577 -31.529328
H -42.217369 37.361133 -33.406040
H -31.401384 51.695279 -22.987561
H -36.704894 40.114533 -34.632379
12
Step 659
C -34.882019 38.976708 -39.089019
C -34.961389 41.794203 -35.559502
C -40.511553 39.523411 -34.029444
C -40.716468 44.894339 -32.582057
C -37.864417 46.471890 -34.599807
C -37.386097 39.439337 -34.485397
H -35.132937 42.007551 -35.332051
H -35.015523 41.226134 -36.211220
H -25.232794 30.345506 -31.527888
H -42.220961 37.356545 -33.407827
H -31.388497 51.710016 -22.969556
H -36.712689 40.112045 -34.627777
12
Step 660
C -34.879388 38.972306 -39.093454
C -34.959343 41.793629 -35.561267
C -40.517024 39.520183 -34.030085
C -40.720128 44.899414 -32.580732
C -37.862865 46.479179 -34.599056
C -37.384656 39.435364 -34.483117
H -35.132641 42.014570 -35.332443
H -35.016548 41.226235 -36.203482
H -25.216219 30.328434 -31.526449
H -42.224549 37.351961 -33.409615
H -31.375611 51.724752 -22.951550
H -36.720426 40.109609 -34.623185
12
Step 661
C -34.876757 38.967904 -39.097888
C -34.957298 41.793044 -35.563040
C -40.522494 39.516955 -34.030726
C -40.723788 44.904489 -32.579407
C -37.861314 46.486469 -34.598305
C -37.383222 39.431385 -34.480836
H -35.132350 42.021665 -35.332792
H -35.017545 41.226402 -36.195697
H -25.199645 30.311363 -31.525009
H -42.228133 37.347384 -33.411404
H -31.362724 51.739489 -22.933545
H -36.728103 40.107230 -34.618600
12
Step 662
C -34.874126 38.963503 -39.102321
C -34.955264 41.792459 -35.564809
C -40.527963 39.513726 -34.031367
C -40.727447 44.909565 -32.578082
C -37.859762 46.493758 -34.597554
C -37.381796 39.427400 -34.478553
H -35.131954 42.028706 -35.333231
H -35.018512 41.226622 -36.187880
H -25.183071 30.294292 -31.523570
H -42.231712 37.342811 -33.413195
H -31.349837 51.754226 -22.915540
H -36.735720 40.104909 -34.614023
12
Step 663
C -34.871495 38.959102 -39.106754
C -34.953250 41.791887 -35.566563
C -40.533430 39.510496 -34.032008
C -40.731106 44.914640 -32.576757
C -37.858211 46.501047 -34.596803
C -37.380378 39.423409 -34.476268
H -35.131342 42.035564 -35.333891
H -35.019448 41.226884 -36.180043
H -25.166496 30.277221 -31.522131
H -42.235288 37.338245 -33.414988
H -31.336951 51.768962 -22.897535
H -36.743277 40.102650 -34.609453
12
Step 664
C -34.868864 38.954701 -39.111187
C -34.951261 41.791335 -35.568294
C -40.538895 39.507267 -34.032649
C -40.734765 44.919716 -32.575433
C -37.856660 46.508337 -34.596052
C -37.378968 39.419412 -34.473982
H -35.130448 42.042155 -35.334850
H -35.020350 41.227180 -36.172198
H -25.149922 30.260149 -31.520691
H -42.238859 37.333684 -33.416782
H -31.324064 51.783699 -22.879530
H -36.750770 40.100455 -34.604889
12
Step 665
C -34.866232 38.950301 -39.115619
C -34.949303 41.790811 -35.569994
C -40.544360 39.504036 -34.033291
C -40.738423 44.924792 -32.574109
C -37.855110 46.515625 -34.595300
C -37.377565 39.415408 -34.471694
H -35.129208 42.048387 -35.336186
H -35.021220 41.227496 -36.164356
H -25.133348 30.243078 -31.519252
H -42.242426 37.329128 -33.418577
H -31.311178 51.798435 -22.861524
H -36.758200 40.098328 -34.600333
12
Step 666
C -34.863601 38.945902 -39.120050
C -34.947381 41.790324 -35.571657
C -40.549822 39.500805 -34.033932
C -40.742082 44.929868 -32.572784
C -37.853559 46.522914 -34.594548
C -37.376170 39.411398 -34.469404
H -35.127572 42.054185 -35.337965
H -35.022061 41.227824 -36.156528
H -25.116773 30.226007 -31.517813
H -42.245988 37.324578 -33.420375
H -31.298291 51.813172 -22.843519
H -36.765566 40.096271 -34.595783
12
Step 667
C -34.860970 38.941502 -39.124481
C -34.945499 41.789884 -35.573274
C -40.555284 39.497573 -34.034574
C -40.745739 44.934944 -32.571461
C -37.852009 46.530203 -34.593796
C -37.374783 39.407381 -34.467114
H -35.125460 42.059421 -35.340294
H -35.022873 41.228160 -36.148715
H -25.100199 30.208935 -31.516373
H -42.249547 37.320034 -33.422173
H -31.285405 51.827908 -22.825514
H -36.772867 40.094287 -34.591240
12
Step 668
C -34.858339 38.937104 -39.128911
C -34.943664 41.789498 -35.574839
C -40.560744 39.494341 -34.035215
C -40.749397 44.940020 -32.570137
C -37.850460 46.537491 -34.593044
C -37.373405 39.403356 -34.464822
H -35.122822 42.064006 -35.343238
H -35.023661 41.228503 -36.140918
H -25.083624 30.191864 -31.514934
H -42.253100 37.315496 -33.423974
H -31.272518 51.842645 -22.807509
H -36.780100 40.092378 -34.586704
12
Step 669
C -34.855708 38.932705 -39.133340
C -34.941875 41.789170 -35.576350
C -40.566203 39.491108 -34.035857
C -40.753054 44.945097 -32.568814
C -37.848910 46.544779 -34.592291
C -37.372034 39.399324 -34.462528
H -35.119645 42.067902 -35.346811
H -35.024424 41.228844 -36.133143
H -25.067050 30.174793 -31.513495
H -42.256650 37.310964 -33.425776
H -31.259632 51.857382 -22.789503
H -36.787265 40.090550 -34.582178
12
Step 670
C -34.853077 38.928308 -39.137769
C -34.940133 41.788903 -35.577806
C -40.571660 39.487875 -34.036499
C -40.756711 44.950173 -32.567490
C -37.847361 46.552067 -34.591538
C -37.370671 39.395284 -34.460234
H -35.115930 42.071089 -35.351012
H -35.025165 41.229171 -36.125399
H -25.050476 30.157722 -31.512055
H -42.260195 37.306437 -33.427580
H -31.246745 51.872118 -22.771498
H -36.794360 40.088808 -34.577660
12
Step 671
C -34.850446 38.923910 -39.142198
C -34.938437 41.788698 -35.579210
C -40.577116 39.484641 -34.037141
C -40.760368 44.955250 -32.566167
C -37.845813 46.559355 -34.590785
C -37.369316 39.391237 -34.457938
H -35.111689 42.073572 -35.355815
H -35.025882 41.229469 -36.117699
H -25.033901 30.140650 -31.510616
H -42.263735 37.301917 -33.429385
H -31.233858 51.886855 -22.753493
H -36.801381 40.087155 -34.573153
12
Step 672
C -34.847815 38.919513 -39.146626
C -34.936784 41.788553 -35.580562
C -40.582570 39.481407 -34.037782
C -40.764024 44.960327 -32.564845
C -37.844265 46.566643 -34.590032
C -37.367969 39.387181 -34.455640
H -35.106958 42.075392 -35.361167
H -35.026578 41.229716 -36.110061
H -25.017327 30.123579 -31.509177
H -42.267271 37.297402 -33.431192
H -31.220972 51.901591 -22.735488
H -36.808327 40.085598 -34.568657
12
Step 673
C -34.845184 38.915116 -39.151054
C -34.935170 41.788462 -35.581869
C -40.588023 39.478172 -34.038424
C -40.767679 44.965405 -32.563523
C -37.842717 46.573930 -34.589278
C -37.366630 39.383117 -34.453342
H -35.101794 42.076635 -35.366981
H -35.027250 41.229887 -36.102507
H -25.000753 30.106508 -31.507737
H -42.270803 37.292893 -33.433001
H -31.208085 51.916328 -22.717483
H -36.815197 40.084140 -34.564172
12
Step 674
C -34.842552 38.910720 -39.155481
C -34.933589 41.788420 -35.583136
C -40.593475 39.474936 -34.039066
C -40.771334 44.970482 -32.562200
C -37.841169 46.581217 -34.588525
C -37.365299 39.379045 -34.451042
H -35.096246 42.077375 -35.373186
H -35.027900 41.229959 -36.095052
H -24.984178 30.089436 -31.506298
H -42.274330 37.288390 -33.434811
H -31.195199 51.931064 -22.699477
H -36.821991 40.082786 -34.559698
12
Step 675
C -34.839921 38.906324 -39.159908
C -34.932040 41.788425 -35.584366
C -40.598925 39.471700 -34.039709
C -40.774989 44.975560 -32.560879
C -37.839623 46.588504 -34.587770
C -37.363976 39.374964 -34.448741
H -35.090357 42.077684 -35.379712
H -35.028529 41.229907 -36.087718
H -24.967604 30.072365 -31.504859
H -42.277852 37.283893 -33.436623
H -31.182312 51.945801 -22.681472
H -36.828707 40.081537 -34.555237
12
Step 676
C -34.837290 38.901928 -39.164334
C -34.930514 41.788468 -35.585566
C -40.604374 39.468463 -34.040351
C -40.778644 44.980638 -32.559557
C -37.838076 46.595791 -34.587016
C -37.362661 39.370875 -34.446439
H -35.084205 42.077695 -35.386452
H -35.029141 41.229693 -36.080534
H -24.951029 30.055294 -31.503419
H -42.281370 37.279403 -33.438437
H -31.169426 51.960537 -22.663467
H -36.835345 40.080396 -34.550789
12
Step 677
C -34.834659 38.897533 -39.168760
C -34.929004 41.788539 -35.586743
C -40.609821 39.465226 -34.040993
C -40.782297 44.985717 -32.558236
C -37.836530 46.603077 -34.586261
C -37.361354 39.366777 -34.444136
H -35.077882 42.077573 -35.393282
H -35.029742 41.229270 -36.073535
H -24.934455 30.038223 -31.501980
H -42.284883 37.274918 -33.440253
H -31.156539 51.975274 -22.645462
H -36.841905 40.079365 -34.546354
12
Step 678
C -34.832028 38.893138 -39.173185
C -34.927503 41.788629 -35.587904
C -40.615268 39.461988 -34.041635
C -40.785951 44.990795 -32.556915
C -37.834985 46.610363 -34.585506
C -37.360054 39.362670 -34.441831
H -35.071467 42.077464 -35.400095
H -35.030343 41.228591 -36.066758
H -24.917881 30.021151 -31.500541
H -42.288391 37.270440 -33.442070
H -31.143653 51.990011 -22.627457
H -36.848389 40.078446 -34.541932
12
Step 679
C -34.829397 38.888743 -39.177610
C -34.926006 41.788735 -35.589049
C -40.620713 39.458750 -34.042278
C -40.789604 44.995874 -32.555595
C -37.833440 46.617649 -34.584750
C -37.358762 39.358554 -34.439526
H -35.065000 42.077440 -35.406839
H -35.030951 41.227617 -36.060230
H -24.901306 30.004080 -31.499101
H -42.291894 37.265968 -33.443889
H -31.130766 52.004747 -22.609451
H -36.854795 40.077639 -34.537525
12
Step 680
C -34.826766 38.884349 -39.182034
C -34.924509 41.788854 -35.590182
C -40.626156 39.455511 -34.042920
C -40.793256 45.000953 -32.554275
C -37.831895 46.624935 -34.583994
C -37.357477 39.354430 -34.437219
H -35.058521 42.077586 -35.413458
H -35.031574 41.226307 -36.053980
H -24.884732 29.987009 -31.497662
H -42.295393 37.261502 -33.445709
H -31.117879 52.019484 -22.591446
H -36.861122 40.076948 -34.533134
12
Step 681
C -34.824136 38.879955 -39.186458
C -34.923009 41.788979 -35.591305
C -40.631599 39.452272 -34.043562
C -40.796908 45.006033 -32.552955
C -37.830351 46.632220 -34.583238
C -37.356199 39.350297 -34.434911
H -35.052083 42.078018 -35.419877
H -35.032219 41.224623 -36.048032
H -24.868157 29.969937 -31.496223
H -42.298887 37.257042 -33.447532
H -31.104993 52.034220 -22.573441
H -36.867369 40.076375 -34.528760
12
Step 682
C -34.821505 38.875562 -39.190881
C -34.921501 41.789103 -35.592424
C -40.637040 39.449032 -34.044205
C -40.800559 45.011113 -32.551636
C -37.828808 46.639505 -34.582482
C -37.354927 39.346156 -34.432603
H -35.045731 42.078845 -35.426032
H -35.032894 41.222528 -36.042407
H -24.851583 29.952866 -31.494783
H -42.302377 37.252589 -33.449356
H -31.092106 52.048957 -22.555436
H -36.873536 40.075921 -34.524405
12
Step 683
C -34.818874 38.871169 -39.195304
C -34.919981 41.789221 -35.593540
C -40.642481 39.445791 -34.044847
C -40.804210 45.016193 -32.550317
C -37.827265 46.646790 -34.581725
C -37.353662 39.342007 -34.430293
H -35.039499 42.080159 -35.431872
H -35.033607 41.219988 -36.037124
H -24.835009 29.935795 -31.493344
H -42.305862 37.248142 -33.451181
H -31.079220 52.063693 -22.537431
H -36.879620 40.075588 -34.520070
12
Step 684
C -34.816243 38.866776 -39.199727
C -34.918449 41.789331 -35.594654
C -40.647920 39.442550 -34.045490
C -40.807861 45.021273 -32.548998
C -37.825722 46.654074 -34.580967
C -37.352403 39.337850 -34.427983
H -35.033402 42.082013 -35.437372
H -35.034362 41.216979 -36.032193
H -24.818434 29.918724 -31.491905
H -42.309342 37.243700 -33.453009
H -31.066333 52.078430 -22.519425
H -36.885622 40.075378 -34.515755
12
Step 685
C -34.813612 38.862383 -39.204149
C -34.916903 41.789430 -35.595767
C -40.653358 39.439308 -34.046132
C -40.811510 45.026354 -32.547680
C -37.824180 46.661358 -34.580210
C -37.351151 39.333684 -34.425671
H -35.027445 42.084440 -35.442521
H -35.035165 41.213480 -36.027622
H -24.801860 29.901652 -31.490465
H -42.312818 37.239265 -33.454838
H -31.053447 52.093166 -22.501420
H -36.891539 40.075292 -34.511463
12
Step 686
C -34.810981 38.857991 -39.208571
C -34.915343 41.789518 -35.596879
C -40.658795 39.436066 -34.046775
C -40.815160 45.031434 -32.546362
C -37.822639 46.668642 -34.579452
C -37.349904 39.329511 -34.423360
H -35.021634 42.087477 -35.447304
H -35.036022 41.209477 -36.023411
H -24.785286 29.884581 -31.489026
H -42.316289 37.234835 -33.456668
H -31.040560 52.107903 -22.483415
H -36.897372 40.075333 -34.507194
12
Step 687
C -34.808350 38.853599 -39.212992
C -34.913770 41.789594 -35.597990
C -40.664231 39.432824 -34.047417
C -40.818808 45.036516 -32.545044
C -37.821098 46.675926 -34.578694
C -37.348662 39.325330 -34.421047
H -35.015965 42.091129 -35.451726
H -35.036935 41.204965 -36.019558
H -24.768711 29.867510 -31.487587
H -42.319756 37.230412 -33.458500
H -31.027674 52.122640 -22.465410
H -36.903119 40.075500 -34.502950
12
Step 688
C -34.805719 38.849208 -39.217413
C -34.912184 41.789660 -35.599099
C -40.669666 39.429581 -34.048060
C -40.822457 45.041597 -32.543727
C -37.819558 46.683209 -34.577935
C -37.347426 39.321142 -34.418734
H -35.010421 42.095364 -35.455813
H -35.037906 41.199949 -36.016049
H -24.752137 29.850439 -31.486147
H -42.323218 37.225994 -33.460334
H -31.014787 52.137376 -22.447405
H -36.908779 40.075798 -34.498731
12
Step 689
C -34.803089 38.844817 -39.221833
C -34.910588 41.789718 -35.600206
C -40.675100 39.426337 -34.048702
C -40.826104 45.046679 -32.542410
C -37.818018 46.690492 -34.577176
C -37.346196 39.316945 -34.416420
H -35.004988 42.100140 -35.459591
H -35.038936 41.194443 -36.012869
H -24.735562 29.833367 -31.484708
H -42.326676 37.221581 -33.462169
H -31.001900 52.152113 -22.429399
H -36.914351 40.076227 -34.494539
12
Step 690
C -34.800458 38.840426 -39.226253
C -34.908981 41.789768 -35.601309
C -40.680533 39.423093 -34.049345
C -40.829751 45.051761 -32.541094
C -37.816479 46.697775 -34.576416
C -37.344971 39.312741 -34.414105
H -34.999660 42.105444 -35.463075
H -35.040024 41.188462 -36.010001
H -24.718988 29.816296 -31.483269
H -42.330130 37.217175 -33.464006
H -30.989014 52.166849 -22.411394
H -36.919835 40.076788 -34.490373
12
Step 691
C -34.797827 38.836035 -39.230673
C -34.907366 41.789814 -35.602408
C -40.685966 39.419848 -34.049987
C -40.833398 45.056843 -32.539778
C -37.814940 46.705057 -34.575656
C -37.343751 39.308530 -34.411790
H -34.994413 42.111203 -35.466305
H -35.041171 41.182028 -36.007424
H -24.702414 29.799225 -31.481829
H -42.333579 37.212774 -33.465845
H -30.976127 52.181586 -22.393389
H -36.925232 40.077482 -34.486235
12
Step 692
C -34.795196 38.831645 -39.235092
C -34.905745 41.789861 -35.603500
C -40.691397 39.416603 -34.050630
C -40.837044 45.061926 -32.538462
C -37.813402 46.712339 -34.574896
C -37.342536 39.304310 -34.409475
H -34.989219 42.117320 -35.469331
H -35.042371 41.175176 -36.005111
H -24.685839 29.782153 -31.480390
H -42.337025 37.208378 -33.467684
H -30.963241 52.196322 -22.375384
H -36.930540 40.078311 -34.482125
12
Step 693
C -34.792566 38.827254 -39.239511
C -34.904122 41.789918 -35.604583
C -40.696827 39.413358 -34.051272
C -40.840689 45.067009 -32.537146
C -37.811865 46.719621 -34.574136
C -37.341326 39.300082 -34.407158
H -34.984047 42.123665 -35.472213
H -35.043621 41.167941 -36.003033
H -24.669265 29.765082 -31.478950
H -42.340466 37.203989 -33.469526
H -30.950354 52.211059 -22.357379
H -36.935761 40.079275 -34.478042
12
Step 694
C -34.789935 38.822864 -39.243930
C -34.902499 41.789992 -35.605655
C -40.702257 39.410112 -34.051915
C -40.844334 45.072092 -32.535831
C -37.810328 46.726902 -34.573375
C -37.340122 39.295847 -34.404841
H -34.978864 42.130090 -35.475014
H -35.044914 41.160368 -36.001161
H -24.652691 29.748011 -31.477511
H -42.343903 37.199604 -33.471368
H -30.937468 52.225796 -22.339373
H -36.940893 40.080376 -34.473987
12
Step 695
C -34.787304 38.818475 -39.248349
C -34.900880 41.790093 -35.606712
C -40.707685 39.406866 -34.052558
C -40.847979 45.077176 -32.534517
C -37.808791 46.734184 -34.572614
C -37.338922 39.291603 -34.402523
H -34.973647 42.136457 -35.477792
H -35.046246 41.152500 -35.999462
H -24.636116 29.730940 -31.476072
H -42.347335 37.195225 -33.473213
H -30.924581 52.240532 -22.321368
H -36.945938 40.081615 -34.469962
12
Step 696
C -34.784674 38.814085 -39.252767
C -34.899266 41.790224 -35.607753
C -40.713113 39.403619 -34.053200
C -40.851623 45.082259 -32.533202
C -37.807255 46.741464 -34.571852
C -37.337728 39.287351 -34.400205
H -34.968383 42.142668 -35.480587
H -35.047610 41.144379 -35.997912
H -24.619542 29.713868 -31.474632
H -42.350764 37.190852 -33.475058
H -30.911695 52.255269 -22.303363
H -36.950895 40.082993 -34.465965
12
Step 697
C -34.782043 38.809696 -39.257185
C -34.897660 41.790400 -35.608776
C -40.718539 39.400372 -34.053843
C -40.855266 45.087344 -32.531888
C -37.805720 46.748745 -34.571090
C -37.336539 39.283090 -34.397885
H -34.963033 42.148495 -35.483487
H -35.048998 41.136067 -35.996473
H -24.602967 29.696797 -31.473193
H -42.354189 37.186484 -33.476905
H -30.898808 52.270005 -22.285358
H -36.955763 40.084514 -34.461998
12
Step 698
C -34.779412 38.805307 -39.261602
C -34.896064 41.790628 -35.609777
C -40.723965 39.397124 -34.054485
C -40.858909 45.092428 -32.530575
C -37.804185 46.756025 -34.570328
C -37.335355 39.278821 -34.395565
H -34.957583 42.153812 -35.486535
H -35.050401 41.127604 -35.995120
H -24.586393 29.679726 -31.471754
H -42.357610 37.182121 -33.478754
H -30.885921 52.284742 -22.267353
H -36.960543 40.086175 -34.458060
12
Step 699
C -34.776782 38.800918 -39.266019
C -34.894481 41.790917 -35.610754
C -40.729390 39.393876 -34.055128
C -40.862551 45.097513 -32.529261
C -37.802650 46.763306 -34.569565
C -37.334176 39.274543 -34.393244
H -34.952023 42.158484 -35.489777
H -35.051816 41.119025 -35.993835
H -24.569819 29.662654 -31.470314
H -42.361027 37.177763 -33.480604
H -30.873035 52.299478 -22.249347
H -36.965238 40.087975 -34.454150
12
Step 700
C -34.774151 38.796530 -39.270436
C -34.892912 41.791283 -35.611704
C -40.734814 39.390627 -34.055770
C -40.866193 45.102598 -32.527949
C -37.801116 46.770585 -34.568802
C -37.333002 39.270256 -34.390922
H -34.946321 42.162264 -35.493296
H -35.053237 41.110371 -35.992596
H -24.553244 29.645583 -31.468875
H -42.364440 37.173410 -33.482455
H -30.860148 52.314215 -22.231342
H -36.969848 40.089915 -34.450269
12
Step 701
C -34.771520 38.792142 -39.274852
C -34.891357 41.791734 -35.612623
C -40.740238 39.387378 -34.056413
C -40.869834 45.107683 -32.526636
C -37.799583 46.777865 -34.568039
C -37.331833 39.265961 -34.388600
H -34.940481 42.165052 -35.497118
H -35.054659 41.101665 -35.991390
H -24.536670 29.628512 -31.467436
H -42.367849 37.169062 -33.484307
H -30.847262 52.328951 -22.213337
H -36.974376 40.091992 -34.446416
12
Step 702
C -34.768890 38.787754 -39.279269
C -34.889817 41.792271 -35.613513
C -40.745660 39.384129 -34.057055
C -40.873475 45.112768 -32.525324
C -37.798050 46.785144 -34.567275
C -37.330668 39.261657 -34.386277
H -34.934510 42.166801 -35.501253
H -35.056081 41.092930 -35.990208
H -24.520096 29.611441 -31.465996
H -42.371254 37.164720 -33.486161
H -30.834375 52.343688 -22.195332
H -36.978824 40.094205 -34.442590
12
Step 703
C -34.766259 38.783366 -39.283684
C -34.888290 41.792895 -35.614375
C -40.751082 39.380879 -34.057698
C -40.877116 45.117854 -32.524012
C -37.796518 46.792423 -34.566511
C -37.329508 39.257345 -34.383953
H -34.928424 42.167503 -35.505696
H -35.057500 41.084181 -35.989043
H -24.503521 29.594369 -31.464557
H -42.374656 37.160382 -33.488016
H -30.821489 52.358425 -22.177326
H -36.983196 40.096549 -34.438789
12
Step 704
C -34.763629 38.778978 -39.288100
C -34.886774 41.793599 -35.615211
C -40.756503 39.377629 -34.058340
C -40.880755 45.122940 -32.522700
C -37.794986 46.799702 -34.565747
C -37.328353 39.253025 -34.381628
H -34.922240 42.167205 -35.510423
H -35.058911 41.075433 -35.987887
H -24.486947 29.577298 -31.463118
H -42.378055 37.156049 -33.489872
H -30.808602 52.373161 -22.159321
H -36.987498 40.099019 -34.435011
12
Step 705
C -34.760998 38.774591 -39.292515
C -34.885266 41.794370 -35.616027
C -40.761923 39.374378 -34.058983
C -40.884395 45.128026 -32.521389
C -37.793454 46.806980 -34.564982
C -37.327202 39.248697 -34.379303
H -34.915988 42.166071 -35.515380
H -35.060311 41.066706 -35.986733
H -24.470372 29.560227 -31.461678
H -42.381449 37.151721 -33.491730
H -30.795716 52.387898 -22.141316
H -36.991739 40.101609 -34.431250
12
Step 706
C -34.758368 38.770204 -39.296930
C -34.883765 41.795195 -35.616828
C -40.767342 39.371127 -34.059626
C -40.888034 45.133113 -32.520078
C -37.791923 46.814258 -34.564217
C -37.326055 39.244360 -34.376977
H -34.909691 42.164253 -35.520515
H -35.061697 41.058003 -35.985578
H -24.453798 29.543155 -31.460239
H -42.384841 37.147397 -33.493588
H -30.782829 52.402634 -22.123311
H -36.995926 40.104311 -34.427505
12
Step 707
C -34.755737 38.765818 -39.301344
C -34.882268 41.796061 -35.617618
C -40.772761 39.367875 -34.060268
C -40.891672 45.138200 -32.518767
C -37.790393 46.821536 -34.563452
C -37.324912 39.240016 -34.374650
H -34.903371 42.161891 -35.525784
H -35.063068 41.049333 -35.984419
H -24.437224 29.526084 -31.458800
H -42.388228 37.143078 -33.495448
H -30.769942 52.417371 -22.105306
H -37.000065 40.107119 -34.423771
12
Step 708
C -34.753107 38.761431 -39.305758
C -34.880775 41.796956 -35.618401
C -40.778178 39.364624 -34.060911
C -40.895310 45.143287 -32.517457
C -37.788862 46.828814 -34.562686
C -37.323772 39.235665 -34.372323
H -34.897045 42.159121 -35.531148
H -35.064418 41.040709 -35.983252
H -24.420649 29.509013 -31.457360
H -42.391613 37.138764 -33.497309
H -30.757056 52.432107 -22.087300
H -37.004162 40.110028 -34.420046
12
Step 709
C -34.750477 38.757045 -39.310172
C -34.879283 41.797867 -35.619180
C -40.783595 39.361371 -34.061553
C -40.898948 45.148374 -32.516146
C -37.787333 46.836092 -34.561921
C -37.322637 39.231307 -34.369995
H -34.890725 42.156091 -35.536567
H -35.065745 41.032144 -35.982071
H -24.404075 29.491942 -31.455921
H -42.394994 37.134454 -33.499172
H -30.744169 52.446844 -22.069295
H -37.008224 40.113032 -34.416326
12
Step 710
C -34.747846 38.752659 -39.314585
C -34.877790 41.798766 -35.619965
C -40.789012 39.358119 -34.062196
C -40.902585 45.153461 -32.514836
C -37.785803 46.843369 -34.561155
C -37.321505 39.226941 -34.367666
H -34.884427 42.153123 -35.541963
H -35.067044 41.023655 -35.980871
H -24.387501 29.474870 -31.454482
H -42.398372 37.130149 -33.501035
H -30.731283 52.461580 -22.051290
H -37.012258 40.116124 -34.412608
12
Step 711
C -34.745216 38.748273 -39.318998
C -34.876298 41.799636 -35.620757
C -40.794427 39.354866 -34.062838
C -40.906222 45.158549 -32.513527
C -37.784274 46.850646 -34.560388
C -37.320376 39.222568 -34.365336
H -34.878158 42.150397 -35.547300
H -35.068310 41.015262 -35.979646
H -24.370926 29.457799 -31.453042
H -42.401746 37.125848 -33.502899
H -30.718396 52.476317 -22.033285
H -37.016270 40.119299 -34.408890
12
Step 712
C -34.742586 38.743888 -39.323411
C -34.874805 41.800460 -35.621561
C -40.799842 39.351613 -34.063480
C -40.909859 45.163637 -32.512217
C -37.782746 46.857923 -34.559622
C -37.319252 39.218188 -34.363006
H -34.871917 42.148115 -35.552538
H -35.069540 41.006979 -35.978388
H -24.354352 29.440728 -31.451603
H -42.405118 37.121551 -33.504765
H -30.705510 52.491054 -22.015280
H -37.020263 40.122555 -34.405169
12
Step 713
C -34.739955 38.739502 -39.327823
C -34.873312 41.801224 -35.622380
C -40.805257 39.348359 -34.064123
C -40.913495 45.168725 -32.510908
C -37.781217 46.865200 -34.558855
C -37.318130 39.213801 -34.360676
H -34.865700 42.146436 -35.557649
H -35.070732 40.998811 -35.977101
H -24.337777 29.423656 -31.450164
H -42.408486 37.117259 -33.506631
H -30.692623 52.505790 -21.997274
H -37.024243 40.125885 -34.401442
12
Step 714
C -34.737325 38.735117 -39.332235
C -34.871819 41.801913 -35.623216
C -40.810671 39.345105 -34.064765
C -40.917131 45.173813 -32.509599
C -37.779689 46.872476 -34.558088
C -37.317012 39.209408 -34.358344
H -34.859496 42.145536 -35.562607
H -35.071883 40.990762 -35.975782
H -24.321203 29.406585 -31.448724
H -42.411851 37.112970 -33.508499
H -30.679737 52.520527 -21.979269
H -37.028215 40.129284 -34.397706
12
Step 715
C -34.734695 38.730733 -39.336647
C -34.870329 41.802512 -35.624071
C -40.816084 39.341850 -34.065408
C -40.920766 45.178901 -32.508290
C -37.778162 46.879753 -34.557321
C -37.315897 39.205008 -34.356012
H -34.853290 42.145600 -35.567389
H -35.072991 40.982842 -35.974431
H -24.304629 29.389514 -31.447285
H -42.415214 37.108686 -33.510367
H -30.666850 52.535263 -21.961264
H -37.032185 40.132749 -34.393960
12
Step 716
C -34.732065 38.726348 -39.341059
C -34.868841 41.803013 -35.624946
C -40.821496 39.338596 -34.066050
C -40.924401 45.183990 -32.506982
C -37.776634 46.887029 -34.556554
C -37.314785 39.200602 -34.353679
H -34.847061 42.146709 -35.571995
H -35.074055 40.975050 -35.973050
H -24.288054 29.372443 -31.445846
H -42.418573 37.104406 -33.512237
H -30.653963 52.550000 -21.943259
H -37.036157 40.136272 -34.390202
12
Step 717
C -34.729434 38.721964 -39.345470
C -34.867357 41.803415 -35.625839
C -40.826908 39.335340 -34.066692
C -40.928036 45.189078 -32.505673
C -37.775107 46.894305 -34.555786
C -37.313676 39.196189 -34.351345
H -34.840791 42.148888 -35.576432
H -35.075077 40.967378 -35.971642
H -24.271480 29.355371 -31.444406
H -42.421929 37.100130 -33.514108
H -30.641077 52.564736 -21.925254
H -37.040136 40.139851 -34.386428
12
Step 718
C -34.726804 38.717579 -39.349881
C -34.865879 41.803723 -35.626749
C -40.832320 39.332085 -34.067335
C -40.931671 45.194167 -32.504365
C -37.773581 46.901581 -34.555018
C -37.312570 39.191771 -34.349011
H -34.834463 42.152105 -35.580720
H -35.076056 40.959817 -35.970215
H -24.254906 29.338300 -31.442967
H -42.425283 37.095859 -33.515979
H -30.628190 52.579473 -21.907248
H -37.044125 40.143478 -34.382637
12
Step 719
C -34.724174 38.713195 -39.354292
C -34.864407 41.803946 -35.627673
C -40.837731 39.328829 -34.067977
C -40.935305 45.199256 -32.503057
C -37.772055 46.908856 -34.554250
C -37.311467 39.187348 -34.346676
H -34.828065 42.156262 -35.584885
H -35.076997 40.952348 -35.968774
H -24.238331 29.321229 -31.441528
H -42.428633 37.091591 -33.517852
H -30.615304 52.594210 -21.889243
H -37.048129 40.147150 -34.378828
12
Step 720
C -34.721544 38.708811 -39.358702
C -34.862941 41.804099 -35.628607
C -40.843141 39.325573 -34.068619
C -40.938939 45.204346 -32.501750
C -37.770529 46.916132 -34.553482
C -37.310366 39.182919 -34.344340
H -34.821592 42.161202 -35.588956
H -35.077904 40.944945 -35.967331
H -24.221757 29.304157 -31.440088
H -42.431981 37.087327 -33.519725
H -30.602417 52.608946 -21.871238
H -37.052150 40.150862 -34.375000
12
Step 721
C -34.718914 38.704428 -39.363113
C -34.861481 41.804192 -35.629549
C -40.848552 39.322316 -34.069261
C -40.942572 45.209435 -32.500442
C -37.769003 46.923407 -34.552713
C -37.309268 39.178485 -34.342004
H -34.815033 42.166845 -35.592953
H -35.078784 40.937579 -35.965896
H -24.205182 29.287086 -31.438649
H -42.435326 37.083067 -33.521600
H -30.589531 52.623683 -21.853233
H -37.056188 40.154613 -34.371153
12
Step 722
C -34.716284 38.700044 -39.367523
C -34.860025 41.804252 -35.630496
C -40.853961 39.319059 -34.069904
C -40.946205 45.214525 -32.499135
C -37.767478 46.930682 -34.551945
C -37.308172 39.174045 -34.339667
H -34.808407 42.172888 -35.596912
H -35.079638 40.930229 -35.964475
H -24.188608 29.270015 -31.437210
H -42.438668 37.078812 -33.523475
H -30.576644 52.638419 -21.835228
H -37.060243 40.158400 -34.367287
12
Step 723
C -34.713654 38.695661 -39.371932
C -34.858571 41.804310 -35.631443
C -40.859370 39.315802 -34.070546
C -40.949838 45.219615 -32.497828
C -37.765953 46.937957 -34.551176
C -37.307078 39.169601 -34.337330
H -34.801756 42.178973 -35.600871
H -35.080470 40.922881 -35.963077
H -24.172034 29.252944 -31.435770
H -42.442007 37.074560 -33.525352
H -30.563757 52.653156 -21.817222
H -37.064315 40.162221 -34.363404
12
Step 724
C -34.711024 38.691278 -39.376342
C -34.857115 41.804388 -35.632388
C -40.864779 39.312544 -34.071188
C -40.953470 45.224705 -32.496521
C -37.764429 46.945232 -34.550406
C -37.305986 39.165153 -34.334992
H -34.795116 42.184836 -35.604855
H -35.081279 40.915531 -35.961702
H -24.155459 29.235872 -31.434331
H -42.445344 37.070312 -33.527229
H -30.550871 52.667892 -21.799217
H -37.068401 40.166072 -34.359505
12
Step 725
C -34.708394 38.686895 -39.380751
C -34.855655 41.804502 -35.633329
C -40.870187 39.309286 -34.071830
C -40.957102 45.229795 -32.495215
C -37.762905 46.952506 -34.549637
C -37.304896 39.160701 -34.332653
H -34.788520 42.190286 -35.608877
H -35.082065 40.908181 -35.960351
H -24.138885 29.218801 -31.432891
H -42.448678 37.066068 -33.529108
H -30.537984 52.682629 -21.781212
H -37.072499 40.169951 -34.355593
12
Step 726
C -34.705764 38.682512 -39.385160
C -34.854188 41.804676 -35.634266
C -40.875595 39.306028 -34.072472
C -40.960734 45.234886 -32.493909
C -37.761381 46.959780 -34.548867
C -37.303807 39.156247 -34.330314
H -34.782023 42.195024 -35.612954
H -35.082826 40.900839 -35.959021
H -24.122311 29.201730 -31.431452
H -42.452010 37.061827 -33.530987
H -30.525098 52.697365 -21.763207
H -37.076604 40.173854 -34.351671
12
Step 727
C -34.703134 38.678130 -39.389569
C -34.852707 41.804940 -35.635196
C -40.881003 39.302769 -34.073114
C -40.964365 45.239976 -32.492602
C -37.759857 46.967054 -34.548098
C -37.302720 39.151790 -34.327975
H -34.775700 42.198677 -35.617101
H -35.083559 40.893506 -35.957713
H -24.105736 29.184659 -31.430013
H -42.455338 37.057591 -33.532867
H -30.512211 52.712102 -21.745202
H -37.080713 40.177778 -34.347741
12
Step 728
C -34.700504 38.673747 -39.393977
C -34.851206 41.805322 -35.636119
C -40.886410 39.299510 -34.073756
C -40.967996 45.245067 -32.491297
C -37.758334 46.974328 -34.547328
C -37.301634 39.147332 -34.325635
H -34.769629 42.200921 -35.621327
H -35.084268 40.886175 -35.956432
H -24.089162 29.167587 -31.428573
H -42.458665 37.053358 -33.534748
H -30.499325 52.726839 -21.727196
H -37.084827 40.181717 -34.343804
12
Step 729
C -34.697874 38.669365 -39.398385
C -34.849682 41.805833 -35.637035
C -40.891817 39.296251 -34.074398
C -40.971627 45.250158 -32.489991
C -37.756811 46.981602 -34.546557
C -37.300549 39.142873 -34.323295
H -34.763853 42.201630 -35.625622
H -35.084952 40.878848 -35.955177
H -24.072587 29.150516 -31.427134
H -42.461988 37.049129 -33.536630
H -30.486438 52.741575 -21.709191
H -37.088945 40.185665 -34.339862
12
Step 730
C -34.695244 38.664983 -39.402793
C -34.848132 41.806474 -35.637945
C -40.897224 39.292991 -34.075040
C -40.975257 45.255249 -32.488685
C -37.755289 46.988876 -34.545787
C -37.299465 39.138414 -34.320954
H -34.758392 42.200778 -35.629974
H -35.085608 40.871532 -35.953945
H -24.056013 29.133445 -31.425695
H -42.465309 37.044904 -33.538513
H -30.473552 52.756312 -21.691186
H -37.093067 40.189614 -34.335914
12
Step 731
C -34.692614 38.660601 -39.407201
C -34.846558 41.807240 -35.638852
C -40.902630 39.289731 -34.075681
C -40.978888 45.260340 -32.487380
C -37.753767 46.996149 -34.545016
C -37.298381 39.133954 -34.318613
H -34.753250 42.198419 -35.634366
H -35.086233 40.864242 -35.952730
H -24.039439 29.116373 -31.424255
H -42.468627 37.040683 -33.540396
H -30.460665 52.771048 -21.673181
H -37.097199 40.193556 -34.331959
12
Step 732
C -34.689984 38.656219 -39.411608
C -34.844961 41.808115 -35.639757
C -40.908036 39.286471 -34.076323
C -40.982517 45.265432 -32.486075
C -37.752245 47.003422 -34.544245
C -37.297298 39.129496 -34.316271
H -34.748402 42.194711 -35.638779
H -35.086820 40.856999 -35.951522
H -24.022864 29.099302 -31.422816
H -42.471943 37.036466 -33.542281
H -30.447778 52.785785 -21.655175
H -37.101344 40.197480 -34.327996
12
Step 733
C -34.687354 38.651838 -39.416015
C -34.843346 41.809073 -35.640664
C -40.913442 39.283210 -34.076965
C -40.986147 45.270523 -32.484770
C -37.750723 47.010695 -34.543474
C -37.296216 39.125039 -34.313929
H -34.743788 42.189948 -35.643197
H -35.087364 40.849829 -35.950312
H -24.006290 29.082231 -31.421377
H -42.475256 37.032253 -33.544167
H -30.434892 52.800521 -21.637170
H -37.105506 40.201379 -34.324021
12
Step 734
C -34.684724 38.647456 -39.420422
C -34.841717 41.810095 -35.641574
C -40.918847 39.279949 -34.077606
C -40.989776 45.275615 -32.483466
C -37.749202 47.017968 -34.542703
C -37.295134 39.120584 -34.311587
H -34.739364 42.184351 -35.647611
H -35.087861 40.842746 -35.949095
H -23.989716 29.065160 -31.419937
H -42.478567 37.028043 -33.546053
H -30.422005 52.815258 -21.619165
H -37.109692 40.205242 -34.320033
12
Step 735
C -34.682095 38.643075 -39.424829
C -34.840078 41.811161 -35.642488
C -40.924253 39.276687 -34.078248
C -40.993404 45.280707 -32.482161
C -37.747681 47.025241 -34.541931
C -37.294053 39.116131 -34.309244
H -34.735071 42.178167 -35.652015
H -35.088310 40.835755 -35.947869
H -23.973141 29.048088 -31.418498
H -42.481875 37.023837 -33.547941
H -30.409119 52.829994 -21.601160
H -37.113909 40.209058 -34.316028
12
Step 736
C -34.679465 38.638694 -39.429236
C -34.838434 41.812248 -35.643406
C -40.929658 39.273425 -34.078890
C -40.997033 45.285800 -32.480857
C -37.746161 47.032514 -34.541159
C -37.292973 39.111681 -34.306900
H -34.730846 42.171643 -35.656406
H -35.088710 40.828862 -35.946630
H -23.956567 29.031017 -31.417059
H -42.485180 37.019635 -33.549829
H -30.396232 52.844731 -21.583155
H -37.118165 40.212818 -34.312000
12
Step 737
C -34.676835 38.634313 -39.433642
C -34.836792 41.813334 -35.644329
C -40.935063 39.270163 -34.079531
C -41.000661 45.290892 -32.479553
C -37.744641 47.039786 -34.540387
C -37.291893 39.107234 -34.304556
H -34.726610 42.165059 -35.660788
H -35.089058 40.822074 -35.945377
H -23.939992 29.013946 -31.415619
H -42.488484 37.015437 -33.551718
H -30.383346 52.859468 -21.565149
H -37.122465 40.216512 -34.307948
12
Step 738
C -34.674205 38.629932 -39.438048
C -34.835162 41.814383 -35.645256
C -40.940467 39.266901 -34.080173
C -41.004289 45.295985 -32.478249
C -37.743121 47.047058 -34.539615
C -37.290813 39.102790 -34.302211
H -34.722231 42.158843 -35.665176
H -35.089353 40.815405 -35.944104
H -23.923418 28.996874 -31.414180
H -42.491784 37.011243 -33.553608
H -30.370459 52.874204 -21.547144
H -37.126814 40.220132 -34.303868
12
Step 739
C -34.671576 38.625551 -39.442455
C -34.833554 41.815359 -35.646185
C -40.945872 39.263638 -34.080814
C -41.007916 45.301077 -32.476946
C -37.741602 47.054330 -34.538843
C -37.289734 39.098350 -34.299865
H -34.717577 42.153389 -35.669598
H -35.089594 40.808861 -35.942810
H -23.906844 28.979803 -31.412741
H -42.495082 37.007052 -33.555499
H -30.357573 52.888941 -21.529139
H -37.131217 40.223671 -34.299759
12
Step 740
C -34.668946 38.621170 -39.446861
C -34.831978 41.816242 -35.647115
C -40.951276 39.260374 -34.081455
C -41.011543 45.306170 -32.475642
C -37.740082 47.061602 -34.538070
C -37.288655 39.093914 -34.297519
H -34.712550 42.148956 -35.674081
H -35.089778 40.802451 -35.941493
H -23.890269 28.962732 -31.411301
H -42.498378 37.002866 -33.557391
H -30.344686 52.903677 -21.511134
H -37.135678 40.227123 -34.295619
12
Step 741
C -34.666316 38.616789 -39.451267
C -34.830438 41.817020 -35.648043
C -40.956681 39.257111 -34.082097
C -41.015170 45.311263 -32.474339
C -37.738564 47.068873 -34.537297
C -37.287577 39.089483 -34.295172
H -34.707090 42.145680 -35.678646
H -35.089906 40.796175 -35.940155
H -23.873695 28.945661 -31.409862
H -42.501671 36.998683 -33.559283
H -30.331799 52.918414 -21.493129
H -37.140201 40.230481 -34.291444
12
Step 742
C -34.663687 38.612409 -39.455672
C -34.828939 41.817680 -35.648968
C -40.962085 39.253847 -34.082738
C -41.018796 45.316357 -32.473036
C -37.737045 47.076145 -34.536524
C -37.286500 39.085056 -34.292825
H -34.701124 42.143707 -35.683320
H -35.089977 40.790036 -35.938795
H -23.857121 28.928589 -31.408423
H -42.504962 36.994503 -33.561177
H -30.318913 52.933150 -21.475123
H -37.144788 40.233741 -34.287235
12
Step 743
C -34.661057 38.608028 -39.460078
C -34.827485 41.818221 -35.649887
C -40.967489 39.250583 -34.083379
C -41.022422 45.321450 -32.471734
C -37.735527 47.083416 -34.535751
C -37.285422 39.080634 -34.290476
H -34.694623 42.143058 -35.688122
H -35.089991 40.784035 -35.937415
H -23.840546 28.911518 -31.406983
H -42.508250 36.990328 -33.563071
H -30.306026 52.947887 -21.457118
H -37.149438 40.236899 -34.282991
12
Step 744
C -34.658427 38.603648 -39.464484
C -34.826073 41.818651 -35.650801
C -40.972893 39.247318 -34.084020
C -41.026048 45.326544 -32.470431
C -37.734009 47.090687 -34.534978
C -37.284345 39.076218 -34.288127
H -34.687612 42.143622 -35.693054
H -35.089948 40.778175 -35.936012
H -23.823972 28.894447 -31.405544
H -42.511537 36.986155 -33.564966
H -30.293140 52.962624 -21.439113
H -37.154149 40.239954 -34.278714
12
Step 745
C -34.655798 38.599268 -39.468889
C -34.824699 41.818986 -35.651710
C -40.978296 39.244053 -34.084661
C -41.029673 45.331638 -32.469129
C -37.732492 47.097958 -34.534204
C -37.283269 39.071808 -34.285778
H -34.680145 42.145227 -35.698108
H -35.089849 40.772456 -35.934588
H -23.807397 28.877375 -31.404105
H -42.514820 36.981987 -33.566862
H -30.280253 52.977360 -21.421108
H -37.158918 40.242904 -34.274407
12
Step 746
C -34.653168 38.594887 -39.473294
C -34.823360 41.819235 -35.652614
C -40.983700 39.240788 -34.085302
C -41.033298 45.336732 -32.467827
C -37.730975 47.105229 -34.533430
C -37.282192 39.067404 -34.283427
H -34.672267 42.147733 -35.703277
H -35.089695 40.766878 -35.933142
H -23.790823 28.860304 -31.402665
H -42.518102 36.977822 -33.568759
H -30.267367 52.992097 -21.403103
H -37.163743 40.245748 -34.270069
12
Step 747
C -34.650538 38.590507 -39.477700
C -34.822044 41.819428 -35.653517
C -40.989104 39.237523 -34.085943
C -41.036923 45.341826 -32.466525
C -37.729458 47.112499 -34.532656
C -37.281116 39.063006 -34.281076
H -34.664123 42.150786 -35.708520
H -35.089485 40.761453 -35.931669
H -23.774249 28.843233 -31.401226
H -42.521381 36.973661 -33.570656
H -30.254480 53.006833 -21.385097
H -37.168617 40.248487 -34.265706
12
Step 748
C -34.647909 38.586127 -39.482105
C -34.820737 41.819595 -35.654423
C -40.994507 39.234257 -34.086584
C -41.040547 45.346920 -32.465223
C -37.727941 47.119770 -34.531882
C -37.280040 39.058615 -34.278725
H -34.655883 42.154011 -35.713782
H -35.089214 40.756195 -35.930167
H -23.757674 28.826162 -31.399787
H -42.524658 36.969503 -33.572555
H -30.241594 53.021570 -21.367092
H -37.173538 40.251120 -34.261320
12
Step 749
C -34.645279 38.581747 -39.486510
C -34.819425 41.819767 -35.655338
C -40.999911 39.230991 -34.087225
C -41.044171 45.352015 -32.463922
C -37.726425 47.127040 -34.531107
C -37.278963 39.054231 -34.276373
H -34.647729 42.157028 -35.719004
H -35.088882 40.751114 -35.928635
H -23.741100 28.809090 -31.398347
H -42.527933 36.965349 -33.574454
H -30.228707 53.036306 -21.349087
H -37.178499 40.253648 -34.256913
12
Step 750
C -34.642649 38.577367 -39.490914
C -34.818095 41.819966 -35.656266
C -41.005314 39.227724 -34.087866
C -41.047795 45.357109 -32.462621
C -37.724909 47.134310 -34.530333
C -37.277887 39.049854 -34.274020
H -34.639810 42.159546 -35.724131
H -35.088486 40.746223 -35.927069
H -23.724526 28.792019 -31.396908
H -42.531206 36.961197 -33.576354
H -30.215820 53.051043 -21.331082
H -37.183499 40.256071 -34.252488
12
Step 751
C -34.640020 38.572987 -39.495319
C -34.816738 41.820211 -35.657211
C -41.010717 39.224458 -34.088507
C -41.051418 45.362204 -32.461320
C -37.723394 47.141580 -34.529558
C -37.276811 39.045484 -34.271667
H -34.632257 42.161330 -35.729116
H -35.088023 40.741533 -35.925468
H -23.707951 28.774948 -31.395469
H -42.534476 36.957050 -33.578254
H -30.202934 53.065779 -21.313077
H -37.188532 40.258389 -34.248047
12
Step 752
C -34.637390 38.568607 -39.499723
C -34.815346 41.820515 -35.658175
C -41.016121 39.221191 -34.089147
C -41.055041 45.367299 -32.460019
C -37.721879 47.148849 -34.528783
C -37.275734 39.041122 -34.269314
H -34.625166 42.162218 -35.733920
H -35.087494 40.737050 -35.923830
H -23.691377 28.757876 -31.394029
H -42.537745 36.952905 -33.580156
H -30.190047 53.080516 -21.295071
H -37.193598 40.260602 -34.243592
12
Step 753
C -34.634761 38.564227 -39.504128
C -34.813913 41.820885 -35.659161
C -41.021524 39.217923 -34.089788
C -41.058664 45.372395 -32.458718
C -37.720364 47.156119 -34.528007
C -37.274658 39.036767 -34.266960
H -34.618581 42.162160 -35.738522
H -35.086913 40.732728 -35.922165
H -23.674802 28.740805 -31.392590
H -42.541011 36.948764 -33.582058
H -30.177161 53.095253 -21.277066
H -37.198693 40.262712 -34.239125
12
Step 754
C -34.632131 38.559848 -39.508532
C -34.812436 41.821329 -35.660169
C -41.026927 39.214656 -34.090428
C -41.062286 45.377490 -32.457418
C -37.718849 47.163388 -34.527232
C -37.273581 39.032420 -34.264606
H -34.612555 42.161090 -35.742895
H -35.086283 40.728565 -35.920472
H -23.658228 28.723734 -31.391151
H -42.544276 36.944627 -33.583961
H -30.164274 53.109989 -21.259061
H -37.203816 40.264720 -34.234646
12
Step 755
C -34.629502 38.555468 -39.512936
C -34.810911 41.821848 -35.661202
C -41.032329 39.211388 -34.091069
C -41.065909 45.382586 -32.456117
C -37.717335 47.170657 -34.526456
C -37.272504 39.028080 -34.262252
H -34.607123 42.158974 -35.747023
H -35.085603 40.724562 -35.918750
H -23.641654 28.706663 -31.389711
H -42.547538 36.940492 -33.585865
H -30.151388 53.124726 -21.241056
H -37.208967 40.266626 -34.230156
12
Step 756
C -34.626872 38.551089 -39.517340
C -34.809338 41.822442 -35.662260
C -41.037732 39.208120 -34.091709
C -41.069530 45.387681 -32.454817
C -37.715821 47.177926 -34.525680
C -37.271427 39.023748 -34.259897
H -34.602301 42.155812 -35.750894
H -35.084874 40.720720 -35.917001
H -23.625079 28.689591 -31.388272
H -42.550799 36.936360 -33.587769
H -30.138501 53.139462 -21.223051
H -37.214143 40.268432 -34.225655
12
Step 757
C -34.624243 38.546710 -39.521743
C -34.807715 41.823108 -35.663343
C -41.043134 39.204851 -34.092350
C -41.073152 45.392777 -32.453518
C -37.714308 47.185195 -34.524904
C -37.270349 39.019422 -34.257542
H -34.598089 42.151635 -35.754505
H -35.084096 40.717040 -35.915223
H -23.608505 28.672520 -31.386832
H -42.554057 36.932232 -33.589674
H -30.125615 53.154199 -21.205045
H -37.219346 40.270142 -34.221144
12
Step 758
C -34.621614 38.542331 -39.526147
C -34.806046 41.823842 -35.664452
C -41.048537 39.201583 -34.092990
C -41.076773 45.397874 -32.452218
C -37.712795 47.192464 -34.524128
C -37.269272 39.015104 -34.255187
H -34.594465 42.146505 -35.757861
H -35.083269 40.713524 -35.913417
H -23.591930 28.655449 -31.385393
H -42.557314 36.928107 -33.591580
H -30.112728 53.168935 -21.187040
H -37.224573 40.271757 -34.216622
12
Step 759
C -34.618984 38.537952 -39.530550
C -34.804333 41.824634 -35.665584
C -41.053939 39.198314 -34.093631
C -41.080393 45.402970 -32.450919
C -37.711282 47.199732 -34.523351
C -37.268194 39.010793 -34.252832
H -34.591386 42.140515 -35.760977
H -35.082395 40.710171 -35.911583
H -23.575356 28.638377 -31.383954
H -42.560568 36.923985 -33.593486
H -30.099841 53.183672 -21.169035
H -37.229824 40.273282 -34.212091
12
Step 760
C -34.616355 38.533573 -39.534953
C -34.802582 41.825477 -35.666739
C -41.059341 39.195045 -34.094271
C -41.084014 45.408066 -32.449619
C -37.709769 47.207000 -34.522575
C -37.267116 39.006488 -34.250476
H -34.588795 42.133777 -35.763873
H -35.081472 40.706983 -35.909721
H -23.558782 28.621306 -31.382514
H -42.563821 36.919865 -33.595393
H -30.086955 53.198408 -21.151030
H -37.235098 40.274719 -34.207551
12
Step 761
C -34.613726 38.529194 -39.539356
C -34.800802 41.826354 -35.667911
C -41.064742 39.191775 -34.094911
C -41.087634 45.413163 -32.448320
C -37.708257 47.214268 -34.521798
C -37.266039 39.002189 -34.248120
H -34.586589 42.126464 -35.766592
H -35.080502 40.703960 -35.907830
H -23.542207 28.604235 -31.381075
H -42.567072 36.915749 -33.597300
H -30.074068 53.213145 -21.133025
H -37.240392 40.276071 -34.203002
12
Step 762
C -34.611096 38.524815 -39.543758
C -34.799001 41.827251 -35.669098
C -41.070143 39.188506 -34.095552
C -41.091254 45.418260 -32.447021
C -37.706745 47.221536 -34.521021
C -37.264961 38.997896 -34.245764
H -34.584648 42.118766 -35.769185
H -35.079488 40.701098 -35.905910
H -23.525633 28.587164 -31.379636
H -42.570322 36.911635 -33.599209
H -30.061182 53.227882 -21.115019
H -37.245706 40.277343 -34.198446
12
Step 763
C -34.608467 38.520436 -39.548161
C -34.797196 41.828145 -35.670292
C -41.075545 39.185236 -34.096192
C -41.094873 45.423357 -32.445723
C -37.705234 47.228804 -34.520243
C -37.263884 38.993609 -34.243407
H -34.582779 42.110963 -35.771738
H -35.078433 40.698386 -35.903963
H -23.509059 28.570092 -31.378196
H -42.573569 36.907525 -33.601118
H -30.048295 53.242618 -21.097014
H -37.251037 40.278538 -34.193883
12
Step 764
C -34.605838 38.516058 -39.552563
C -34.795404 41.829014 -35.671484
C -41.080945 39.181966 -34.096832
C -41.098492 45.428454 -32.444424
C -37.703723 47.236072 -34.519466
C -37.262808 38.989327 -34.241050
H -34.580778 42.103340 -35.774342
H -35.077346 40.695799 -35.901992
H -23.492484 28.553021 -31.376757
H -42.576815 36.903417 -33.603027
H -30.035409 53.257355 -21.079009
H -37.256381 40.279659 -34.189316
12
Step 765
C -34.603208 38.511680 -39.556965
C -34.793641 41.829838 -35.672667
C -41.086346 39.178696 -34.097472
C -41.102111 45.433551 -32.443126
C -37.702212 47.243339 -34.518688
C -37.261731 38.985051 -34.238693
H -34.578452 42.096150 -35.777087
H -35.076232 40.693323 -35.900000
H -23.475910 28.535950 -31.375318
H -42.580059 36.899312 -33.604937
H -30.022522 53.272091 -21.061004
H -37.261737 40.280712 -34.184746
12
Step 766
C -34.600579 38.507301 -39.561367
C -34.791924 41.830594 -35.673832
C -41.091746 39.175425 -34.098112
C -41.105730 45.438649 -32.441828
C -37.700701 47.250606 -34.517910
C -37.260655 38.980779 -34.236335
H -34.575596 42.089638 -35.780072
H -35.075088 40.690976 -35.897981
H -23.459335 28.518879 -31.373878
H -42.583301 36.895210 -33.606848
H -30.009636 53.286828 -21.042998
H -37.267099 40.281701 -34.180175
12
Step 767
C -34.597950 38.502923 -39.565769
C -34.790267 41.831268 -35.674973
C -41.097146 39.172154 -34.098752
C -41.109348 45.443746 -32.440530
C -37.699191 47.257873 -34.517132
C -37.259580 38.976512 -34.233977
H -34.572041 42.083997 -35.783380
H -35.073919 40.688745 -35.895938
H -23.442761 28.501807 -31.372439
H -42.586542 36.891110 -33.608759
H -29.996749 53.301564 -21.024993
H -37.272463 40.282633 -34.175607
12
Step 768
C -34.595321 38.498545 -39.570171
C -34.788681 41.831850 -35.676084
C -41.102545 39.168883 -34.099392
C -41.112966 45.448844 -32.439233
C -37.697681 47.265140 -34.516354
C -37.258506 38.972249 -34.231618
H -34.567674 42.079339 -35.787069
H -35.072731 40.686621 -35.893870
H -23.426187 28.484736 -31.371000
H -42.589781 36.887013 -33.610671
H -29.983862 53.316301 -21.006988
H -37.277825 40.283514 -34.171044
12
Step 769
C -34.592692 38.494167 -39.574572
C -34.787171 41.832335 -35.677162
C -41.107944 39.165612 -34.100032
C -41.116583 45.453942 -32.437935
C -37.696171 47.272407 -34.515575
C -37.257432 38.967991 -34.229259
H -34.562405 42.075738 -35.791186
H -35.071527 40.684596 -35.891777
H -23.409612 28.467665 -31.369560
H -42.593018 36.882919 -33.612584
H -29.970976 53.331038 -20.988983
H -37.283179 40.284349 -34.166490
12
Step 770
C -34.590063 38.489789 -39.578973
C -34.785738 41.832727 -35.678206
C -41.113343 39.162341 -34.100672
C -41.120201 45.459040 -32.436638
C -37.694662 47.279674 -34.514797
C -37.256359 38.963735 -34.226900
H -34.556250 42.073148 -35.795727
H -35.070312 40.682666 -35.889657
H -23.393038 28.450593 -31.368121
H -42.596254 36.878827 -33.614497
H -29.958089 53.345774 -20.970978
H -37.288522 40.285143 -34.161945
12
Step 771
C -34.587434 38.485411 -39.583374
C -34.784374 41.833036 -35.679218
C -41.118741 39.159069 -34.101312
C -41.123818 45.464139 -32.435341
C -37.693153 47.286940 -34.514018
C -37.255286 38.959484 -34.224540
H -34.549283 42.071465 -35.800658
H -35.069095 40.680810 -35.887512
H -23.376464 28.433522 -31.366682
H -42.599488 36.874739 -33.616410
H -29.945203 53.360511 -20.952972
H -37.293852 40.285902 -34.157413
12
Step 772
C -34.584805 38.481034 -39.587775
C -34.783069 41.833275 -35.680205
C -41.124139 39.155798 -34.101952
C -41.127434 45.469237 -32.434044
C -37.691644 47.294206 -34.513239
C -37.254214 38.955235 -34.222180
H -34.541631 42.070532 -35.805917
H -35.067880 40.679025 -35.885339
H -23.359889 28.416451 -31.365242
H -42.602721 36.870653 -33.618324
H -29.932316 53.375247 -20.934967
H -37.299167 40.286630 -34.152895
12
Step 773
C -34.582176 38.476656 -39.592176
C -34.781805 41.833463 -35.681175
C -41.129537 39.152526 -34.102592
C -41.131051 45.474336 -32.432747
C -37.690135 47.301472 -34.512460
C -37.253142 38.950989 -34.219819
H -34.533501 42.070121 -35.811400
H -35.066668 40.677316 -35.883136
H -23.343315 28.399380 -31.363803
H -42.605951 36.866570 -33.620239
H -29.919430 53.389984 -20.916962
H -37.304464 40.287333 -34.148392
12
Step 774
C -34.579547 38.472279 -39.596576
C -34.780561 41.833621 -35.682138
C -41.134934 39.149253 -34.103232
C -41.134667 45.479435 -32.431450
C -37.688627 47.308738 -34.511680
C -37.252071 38.946745 -34.217459
H -34.525146 42.069975 -35.816977
H -35.065461 40.675695 -35.880897
H -23.326740 28.382308 -31.362364
H -42.609180 36.862490 -33.622155
H -29.906543 53.404720 -20.898957
H -37.309742 40.288015 -34.143905
12
Step 775
C -34.576918 38.467901 -39.600977
C -34.779319 41.833766 -35.683106
C -41.140331 39.145981 -34.103871
C -41.138283 45.484534 -32.430154
C -37.687119 47.316004 -34.510901
C -37.250999 38.942503 -34.215098
H -34.516792 42.069875 -35.822533
H -35.064255 40.674184 -35.878617
H -23.310166 28.365237 -31.360924
H -42.612406 36.858413 -33.624071
H -29.893657 53.419457 -20.880952
H -37.314999 40.288680 -34.139437
12
Step 776
C -34.574289 38.463524 -39.605377
C -34.778058 41.833914 -35.684089
C -41.145727 39.142708 -34.104511
C -41.141898 45.489633 -32.428858
C -37.685611 47.323270 -34.510121
C -37.249928 38.938263 -34.212738
H -34.508691 42.069592 -35.827935
H -35.063051 40.672793 -35.876292
H -23.293592 28.348166 -31.359485
H -42.615631 36.854340 -33.625988
H -29.880770 53.434193 -20.862946
H -37.320235 40.289332 -34.134987
12
Step 777
C -34.571660 38.459147 -39.609776
C -34.776760 41.834082 -35.685097
C -41.151123 39.139435 -34.105151
C -41.145514 45.494732 -32.427561
C -37.684104 47.330536 -34.509341
C -37.248857 38.934024 -34.210378
H -34.501058 42.068947 -35.833067
H -35.061851 40.671527 -35.873919
H -23.277017 28.331094 -31.358046
H -42.618853 36.850270 -33.627905
H -29.867883 53.448930 -20.844941
H -37.325449 40.289976 -34.130556
12
Step 778
C -34.569031 38.454770 -39.614176
C -34.775417 41.834275 -35.686134
C -41.156519 39.136162 -34.105790
C -41.149129 45.499831 -32.426265
C -37.682596 47.337801 -34.508562
C -37.247787 38.929787 -34.208018
H -34.493980 42.067880 -35.837881
H -35.060660 40.670381 -35.871497
H -23.260443 28.314023 -31.356606
H -42.622074 36.846203 -33.629823
H -29.854997 53.463667 -20.826936
H -37.330640 40.290615 -34.126145
12
Step 779
C -34.566402 38.450393 -39.618575
C -34.774021 41.834497 -35.687204
C -41.161914 39.132888 -34.106430
C -41.152744 45.504930 -32.424969
C -37.681089 47.345066 -34.507782
C -37.246716 38.925550 -34.205658
H -34.487547 42.066329 -35.842324
H -35.059483 40.669345 -35.869026
H -23.243869 28.296952 -31.355167
H -42.625292 36.842139 -33.631742
H -29.842110 53.478403 -20.808931
H -37.335806 40.291253 -34.121756
12
Step 780
C -34.563773 38.446017 -39.622975
C -34.772563 41.834758 -35.688314
C -41.167308 39.129615 -34.107070
C -41.156359 45.510030 -32.423674
C -37.679582 47.352332 -34.507001
C -37.245645 38.921314 -34.203298
H -34.481877 42.064218 -35.846332
H -35.058326 40.668409 -35.866503
H -23.227294 28.279881 -31.353728
H -42.628508 36.838079 -33.633662
H -29.829224 53.493140 -20.790926
H -37.340945 40.291893 -34.117390
12
Step 781
C -34.561144 38.441640 -39.627374
C -34.771034 41.835061 -35.689466
C -41.172702 39.126341 -34.107709
C -41.159973 45.515129 -32.422378
C -37.678076 47.359597 -34.506221
C -37.244574 38.917078 -34.200939
H -34.477056 42.061498 -35.849856
H -35.057194 40.667567 -35.863929
H -23.210720 28.262809 -31.352288
H -42.631723 36.834022 -33.635582
H -29.816337 53.507876 -20.772920
H -37.346055 40.292539 -34.113049
12
Step 782
C -34.558516 38.437264 -39.631772
C -34.769431 41.835407 -35.690663
C -41.178096 39.123066 -34.108349
C -41.163588 45.520229 -32.421082
C -37.676569 47.366862 -34.505441
C -37.243503 38.912843 -34.198580
H -34.473130 42.058155 -35.852868
H -35.056093 40.666811 -35.861300
H -23.194145 28.245738 -31.350849
H -42.634936 36.829967 -33.637503
H -29.803451 53.522613 -20.754915
H -37.351133 40.293193 -34.108734
12
Step 783
C -34.555887 38.432887 -39.636171
C -34.767752 41.835797 -35.691906
C -41.183489 39.119792 -34.108988
C -41.167202 45.525329 -32.419787
C -37.675063 47.374127 -34.504660
C -37.242432 38.908607 -34.196221
H -34.470111 42.054200 -35.855357
H -35.055027 40.666138 -35.858617
H -23.177571 28.228667 -31.349410
H -42.638146 36.825916 -33.639424
H -29.790564 53.537349 -20.736910
H -37.356177 40.293857 -34.104448
12
Step 784
C -34.553258 38.428511 -39.640569
C -34.765999 41.836228 -35.693195
C -41.188881 39.116517 -34.109627
C -41.170816 45.530429 -32.418492
C -37.673557 47.381392 -34.503880
C -37.241361 38.904372 -34.193863
H -34.467985 42.049666 -35.857331
H -35.054000 40.665545 -35.855877
H -23.160997 28.211595 -31.347970
H -42.641355 36.821868 -33.641347
H -29.777678 53.552086 -20.718905
H -37.361185 40.294534 -34.100192
12
Step 785
C -34.550630 38.424135 -39.644967
C -34.764176 41.836695 -35.694527
C -41.194273 39.113243 -34.110267
C -41.174430 45.535528 -32.417196
C -37.672051 47.388657 -34.503099
C -37.240289 38.900137 -34.191504
H -34.466697 42.044612 -35.858814
H -35.053014 40.665029 -35.853078
H -23.144422 28.194524 -31.346531
H -42.644562 36.817823 -33.643269
H -29.764791 53.566822 -20.700900
H -37.366153 40.295222 -34.095968
12
Step 786
C -34.548001 38.419759 -39.649365
C -34.762291 41.837190 -35.695898
C -41.199665 39.109968 -34.110906
C -41.178044 45.540629 -32.415901
C -37.670545 47.395921 -34.502318
C -37.239218 38.895901 -34.189147
H -34.466152 42.039127 -35.859859
H -35.052075 40.664590 -35.850219
H -23.127848 28.177453 -31.345092
H -42.647767 36.813781 -33.645193
H -29.751904 53.581559 -20.682894
H -37.371079 40.295924 -34.091778
12
Step 787
C -34.545372 38.415383 -39.653763
C -34.760354 41.837705 -35.697303
C -41.205056 39.106692 -34.111545
C -41.181657 45.545729 -32.414606
C -37.669039 47.403186 -34.501537
C -37.238147 38.891666 -34.186789
H -34.466238 42.033304 -35.860525
H -35.051183 40.664229 -35.847298
H -23.111274 28.160382 -31.343652
H -42.650970 36.809742 -33.647117
H -29.739018 53.596296 -20.664889
H -37.375960 40.296639 -34.087623
12
Step 788
C -34.542744 38.411007 -39.658160
C -34.758372 41.838234 -35.698737
C -41.210446 39.103417 -34.112184
C -41.185270 45.550829 -32.413311
C -37.667534 47.410450 -34.500756
C -37.237076 38.887431 -34.184432
H -34.466860 42.027223 -35.860863
H -35.050340 40.663951 -35.844314
H -23.094699 28.143310 -31.342213
H -42.654172 36.805706 -33.649041
H -29.726131 53.611032 -20.646884
H -37.380794 40.297367 -34.083507
12
Step 789
C -34.540115 38.406632 -39.662558
C -34.756358 41.838767 -35.700195
C -41.215836 39.100141 -34.112824
C -41.188883 45.555929 -32.412017
C -37.666029 47.417715 -34.499975
C -37.236004 38.883197 -34.182075
H -34.467879 42.020990 -35.860947
H -35.049551 40.663747 -35.841264
H -23.078125 28.126239 -31.340773
H -42.657372 36.801673 -33.650966
H -29.713245 53.625769 -20.628879
H -37.385576 40.298106 -34.079431
12
Step 790
C -34.537487 38.402256 -39.666955
C -34.754331 41.839293 -35.701664
C -41.221225 39.096865 -34.113463
C -41.192496 45.561030 -32.410722
C -37.664524 47.424979 -34.499194
C -37.234933 38.878963 -34.179718
H -34.469048 42.014771 -35.860914
H -35.048821 40.663609 -35.838150
H -23.061550 28.109168 -31.339334
H -42.660569 36.797642 -33.652892
H -29.700358 53.640505 -20.610874
H -37.390302 40.298855 -34.075399
12
Step 791
C -34.534858 38.397881 -39.671352
C -34.752314 41.839796 -35.703132
C -41.226614 39.093589 -34.114102
C -41.196109 45.566131 -32.409427
C -37.663019 47.432243 -34.498412
C -37.233862 38.874730 -34.177362
H -34.470095 42.008745 -35.860915
H -35.048154 40.663520 -35.834972
H -23.044976 28.092096 -31.337895
H -42.663766 36.793615 -33.654818
H -29.687472 53.655242 -20.592868
H -37.394971 40.299611 -34.071410
12
Step 792
C -34.532230 38.393506 -39.675748
C -34.750330 41.840265 -35.704586
C -41.232002 39.090313 -34.114741
C -41.199721 45.571231 -32.408133
C -37.661515 47.439507 -34.497631
C -37.232791 38.870498 -34.175005
H -34.470753 42.003073 -35.861098
H -35.047555 40.663466 -35.831734
H -23.028402 28.075025 -31.336455
H -42.666960 36.789590 -33.656745
H -29.674585 53.669978 -20.574863
H -37.399581 40.300372 -34.067467
12
Step 793
C -34.529601 38.389130 -39.680145
C -34.748403 41.840686 -35.706013
C -41.237389 39.087037 -34.115380
C -41.203334 45.576332 -32.406839
C -37.660010 47.446771 -34.496849
C -37.231720 38.866268 -34.172649
H -34.470735 41.997916 -35.861624
H -35.047022 40.663444 -35.828436
H -23.011827 28.057954 -31.335016
H -42.670153 36.785568 -33.658672
H -29.661699 53.684715 -20.556858
H -37.404130 40.301134 -34.063571
12
Step 794
C -34.526973 38.384755 -39.684541
C -34.746554 41.841047 -35.707399
C -41.242776 39.083760 -34.116019
C -41.206946 45.581433 -32.405545
C -37.658506 47.454035 -34.496067
C -37.230650 38.862040 -34.170293
H -34.469788 41.993406 -35.862636
H -35.046555 40.663458 -35.825080
H -22.995253 28.040883 -31.333577
H -42.673344 36.781548 -33.660600
H -29.648812 53.699452 -20.538853
H -37.408617 40.301891 -34.059720
12
Step 795
C -34.524345 38.380380 -39.688938
C -34.744796 41.841344 -35.708738
C -41.248163 39.080483 -34.116658
C -41.210557 45.586534 -32.404250
C -37.657002 47.461298 -34.495285
C -37.229580 38.857815 -34.167937
H -34.467751 41.989613 -35.864227
H -35.046148 40.663515 -35.821667
H -22.978679 28.023811 -31.332137
H -42.676534 36.777531 -33.662528
H -29.635925 53.714188 -20.520848
H -37.413041 40.302640 -34.055917
12
Step 796
C -34.521716 38.376005 -39.693334
C -34.743136 41.841573 -35.710027
C -41.253548 39.077206 -34.117296
C -41.214169 45.591635 -32.402957
C -37.655499 47.468562 -34.494503
C -37.228510 38.853592 -34.165580
H -34.464567 41.986548 -35.866429
H -35.045802 40.663620 -35.818196
H -22.962104 28.006740 -31.330698
H -42.679722 36.773517 -33.664457
H -29.623039 53.728925 -20.502842
H -37.417402 40.303374 -34.052162
12
Step 797
C -34.519088 38.371631 -39.697730
C -34.741571 41.841738 -35.711266
C -41.258934 39.073929 -34.117935
C -41.217781 45.596736 -32.401663
C -37.653995 47.475826 -34.493721
C -37.227442 38.849373 -34.163224
H -34.460244 41.984192 -35.869240
H -35.045517 40.663772 -35.814668
H -22.945530 27.989669 -31.329259
H -42.682908 36.769505 -33.666387
H -29.610152 53.743661 -20.484837
H -37.421699 40.304089 -34.048454
12
Step 798
C -34.516460 38.367256 -39.702125
C -34.740096 41.841841 -35.712459
C -41.264318 39.070652 -34.118574
C -41.221392 45.601838 -32.400369
C -37.652492 47.483089 -34.492939
C -37.226373 38.845157 -34.160867
H -34.454853 41.982496 -35.872618
H -35.045294 40.663970 -35.811082
H -22.928955 27.972597 -31.327819
H -42.686093 36.765495 -33.668317
H -29.597266 53.758398 -20.466832
H -37.425931 40.304776 -34.044794
12
Step 799
C -34.513831 38.362881 -39.706521
C -34.738694 41.841893 -35.713614
C -41.269702 39.067375 -34.119213
C -41.225003 45.606939 -32.399075
C -37.650988 47.490352 -34.492157
C -37.225306 38.840946 -34.158511
H -34.448588 41.981361 -35.876454
H -35.045141 40.664205 -35.807435
H -22.912381 27.955526 -31.326380
H -42.689277 36.761488 -33.670247
H -29.584379 53.773134 -20.448827
H -37.430098 40.305428 -34.041183
12
Step 800
C -34.511203 38.358507 -39.710916
C -34.737343 41.841904 -35.714745
C -41.275086 39.064097 -34.119852
C -41.228614 45.612041 -32.397782
C -37.649485 47.497615 -34.491374
C -37.224239 38.836739 -34.156154
H -34.441711 41.980656 -35.880600
H -35.045064 40.664472 -35.803725
H -22.895807 27.938455 -31.324941
H -42.692459 36.757483 -33.672178
H -29.571493 53.787871 -20.430821
H -37.434198 40.306040 -34.037622
12
Step 801
C -34.508575 38.354132 -39.715312
C -34.736017 41.841886 -35.715865
C -41.280468 39.060819 -34.120490
C -41.232225 45.617142 -32.396488
C -37.647982 47.504879 -34.490592
C -37.223174 38.832539 -34.153797
H -34.434515 41.980245 -35.884891
H -35.045067 40.664767 -35.799950
H -22.879232 27.921384 -31.323501
H -42.695639 36.753481 -33.674109
H -29.558606 53.802607 -20.412816
H -37.438231 40.306603 -34.034111
12
Step 802
C -34.505947 38.349758 -39.719707
C -34.734694 41.841850 -35.716987
C -41.285850 39.057542 -34.121129
C -41.235835 45.622244 -32.395195
C -37.646480 47.512142 -34.489809
C -37.222109 38.828344 -34.151439
H -34.427262 41.980008 -35.889179
H -35.045153 40.665098 -35.796105
H -22.862658 27.904312 -31.322062
H -42.698818 36.749481 -33.676041
H -29.545720 53.817344 -20.394811
H -37.442192 40.307110 -34.030652
12
Step 803
C -34.503318 38.345383 -39.724102
C -34.733353 41.841803 -35.718124
C -41.291232 39.054264 -34.121767
C -41.239446 45.627346 -32.393902
C -37.644977 47.519405 -34.489026
C -37.221045 38.824156 -34.149082
H -34.420227 41.979826 -35.893310
H -35.045322 40.665473 -35.792189
H -22.846084 27.887241 -31.320623
H -42.701996 36.745483 -33.677973
H -29.532833 53.832081 -20.376806
H -37.446081 40.307553 -34.027247
12
Step 804
C -34.500690 38.341009 -39.728497
C -34.731973 41.841754 -35.719287
C -41.296613 39.050986 -34.122406
C -41.243056 45.632448 -32.392609
C -37.643475 47.526667 -34.488244
C -37.219982 38.819976 -34.146724
H -34.413635 41.979604 -35.897160
H -35.045576 40.665892 -35.788200
H -22.829509 27.870170 -31.319183
H -42.705173 36.741487 -33.679906
H -29.519946 53.846817 -20.358801
H -37.449896 40.307926 -34.023896
12
Step 805
C -34.498062 38.336635 -39.732892
C -34.730541 41.841709 -35.720483
C -41.301993 39.047707 -34.123044
C -41.246666 45.637550 -32.391316
C -37.641973 47.533930 -34.487461
C -37.218921 38.815804 -34.144365
H -34.407634 41.979282 -35.900647
H -35.045915 40.666357 -35.784139
H -22.812935 27.853098 -31.317744
H -42.708348 36.737493 -33.681839
H -29.507060 53.861554 -20.340795
H -37.453636 40.308221 -34.020598
12
Step 806
C -34.495434 38.332261 -39.737287
C -34.729050 41.841670 -35.721715
C -41.307373 39.044429 -34.123683
C -41.250276 45.642652 -32.390023
C -37.640471 47.541193 -34.486678
C -37.217861 38.811640 -34.142007
H -34.402329 41.978820 -35.903712
H -35.046344 40.666860 -35.780004
H -22.796360 27.836027 -31.316305
H -42.711522 36.733501 -33.683772
H -29.494173 53.876290 -20.322790
H -37.457300 40.308429 -34.017356
12
Step 807
C -34.492806 38.327887 -39.741682
C -34.727489 41.841642 -35.722990
C -41.312752 39.041151 -34.124321
C -41.253885 45.647754 -32.388730
C -37.638969 47.548455 -34.485894
C -37.216802 38.807486 -34.139648
H -34.397831 41.978177 -35.906297
H -35.046863 40.667396 -35.775797
H -22.779786 27.818956 -31.314865
H -42.714695 36.729511 -33.685706
H -29.481287 53.891027 -20.304785
H -37.460886 40.308545 -34.014169
12
Step 808
C -34.490177 38.323513 -39.746076
C -34.725851 41.841629 -35.724312
C -41.318130 39.037872 -34.124960
C -41.257495 45.652856 -32.387438
C -37.637468 47.555718 -34.485111
C -37.215745 38.803341 -34.137288
H -34.394230 41.977320 -35.908351
H -35.047475 40.667961 -35.771517
H -22.763212 27.801885 -31.313426
H -42.717866 36.725523 -33.687640
H -29.468400 53.905763 -20.286780
H -37.464393 40.308560 -34.011038
12
Step 809
C -34.487549 38.319139 -39.750471
C -34.724131 41.841630 -35.725682
C -41.323508 39.034593 -34.125598
C -41.261104 45.657958 -32.386145
C -37.635966 47.562980 -34.484328
C -37.214689 38.799207 -34.134928
H -34.391577 41.976231 -35.909850
H -35.048181 40.668553 -35.767164
H -22.746637 27.784813 -31.311987
H -42.721037 36.721537 -33.689575
H -29.455514 53.920500 -20.268775
H -37.467819 40.308470 -34.007963
12
Step 810
C -34.484921 38.314765 -39.754865
C -34.722328 41.841648 -35.727102
C -41.328885 39.031315 -34.126236
C -41.264713 45.663061 -32.384852
C -37.634465 47.570243 -34.483544
C -37.213636 38.795084 -34.132567
H -34.389889 41.974908 -35.910785
H -35.048979 40.669173 -35.762739
H -22.730063 27.767742 -31.310547
H -42.724206 36.717552 -33.691509
H -29.442627 53.935237 -20.250769
H -37.471164 40.308267 -34.004946
12
Step 811
C -34.482293 38.310391 -39.759260
C -34.720444 41.841681 -35.728569
C -41.334261 39.028036 -34.126875
C -41.268322 45.668163 -32.383560
C -37.632964 47.577505 -34.482761
C -37.212584 38.790972 -34.130206
H -34.389145 41.973364 -35.911170
H -35.049871 40.669819 -35.758242
H -22.713489 27.750671 -31.309108
H -42.727374 36.713570 -33.693445
H -29.429740 53.949973 -20.232764
H -37.474426 40.307945 -34.001985
12
Step 812
C -34.479665 38.306017 -39.763654
C -34.718484 41.841726 -35.730082
C -41.339637 39.024757 -34.127513
C -41.271931 45.673266 -32.382268
C -37.631463 47.584767 -34.481977
C -37.211534 38.786871 -34.127844
H -34.389287 41.971625 -35.911038
H -35.050854 40.670493 -35.753675
H -22.696914 27.733600 -31.307669
H -42.730542 36.709588 -33.695380
H -29.416854 53.964710 -20.214759
H -37.477607 40.307502 -33.999080
12
Step 813
C -34.477037 38.301643 -39.768049
C -34.716455 41.841779 -35.731636
C -41.345012 39.021478 -34.128151
C -41.275540 45.678369 -32.380976
C -37.629962 47.592029 -34.481193
C -37.210486 38.782783 -34.125481
H -34.390220 41.969734 -35.910445
H -35.051926 40.671197 -35.749039
H -22.680340 27.716528 -31.306229
H -42.733708 36.705609 -33.697316
H -29.403967 53.979446 -20.196754
H -37.480707 40.306935 -33.996231
12
Step 814
C -34.474409 38.297269 -39.772443
C -34.714367 41.841838 -35.733225
C -41.350386 39.018199 -34.128789
C -41.279148 45.683471 -32.379683
C -37.628461 47.599291 -34.480409
C -37.209441 38.778706 -34.123118
H -34.391837 41.967732 -35.909451
H -35.053085 40.671938 -35.744335
H -22.663765 27.699457 -31.304790
H -42.736874 36.701631 -33.699252
H -29.391081 53.994183 -20.178749
H -37.483726 40.306241 -33.993436
12
Step 815
C -34.471781 38.292896 -39.776837
C -34.712230 41.841897 -35.734844
C -41.355760 39.014920 -34.129428
C -41.282757 45.688574 -32.378391
C -37.626961 47.606553 -34.479626
C -37.208397 38.774642 -34.120753
H -34.394020 41.965667 -35.908121
H -35.054328 40.672719 -35.739564
H -22.647191 27.682386 -31.303351
H -42.740038 36.697654 -33.701189
H -29.378194 54.008919 -20.160743
H -37.486665 40.305419 -33.990695
12
Step 816
C -34.469153 38.288522 -39.781231
C -34.710057 41.841951 -35.736485
C -41.361133 39.011640 -34.130066
C -41.286365 45.693677 -32.377100
C -37.625461 47.613814 -34.478842
C -37.207356 38.770590 -34.118389
H -34.396605 41.963602 -35.906549
H -35.055653 40.673541 -35.734727
H -22.630617 27.665314 -31.301911
H -42.743202 36.693679 -33.703125
H -29.365308 54.023656 -20.142738
H -37.489521 40.304464 -33.988009
12
Step 817
C -34.466525 38.284148 -39.785625
C -34.707870 41.841993 -35.738137
C -41.366506 39.008361 -34.130704
C -41.289973 45.698780 -32.375808
C -37.623961 47.621076 -34.478057
C -37.206317 38.766551 -34.116023
H -34.399341 41.961634 -35.904870
H -35.057061 40.674398 -35.729826
H -22.614042 27.648243 -31.300472
H -42.746365 36.689705 -33.705062
H -29.352421 54.038392 -20.124733
H -37.492296 40.303374 -33.985377
12
Step 818
C -34.463896 38.279775 -39.790019
C -34.705690 41.842015 -35.739787
C -41.371878 39.005082 -34.131342
C -41.293581 45.703883 -32.374516
C -37.622461 47.628338 -34.477273
C -37.205280 38.762524 -34.113657
H -34.401969 41.959860 -35.903228
H -35.058550 40.675282 -35.724864
H -22.597468 27.631172 -31.299033
H -42.749527 36.685733 -33.707000
H -29.339535 54.053129 -20.106728
H -37.494992 40.302145 -33.982796
12
Step 819
C -34.461268 38.275401 -39.794413
C -34.703544 41.842007 -35.741421
C -41.377249 39.001802 -34.131980
C -41.297189 45.708987 -32.373224
C -37.620961 47.635599 -34.476489
C -37.204246 38.758511 -34.111290
H -34.404166 41.958399 -35.901795
H -35.060119 40.676188 -35.719844
H -22.580894 27.614101 -31.297593
H -42.752688 36.681761 -33.708937
H -29.326648 54.067866 -20.088723
H -37.497610 40.300774 -33.980266
12
Step 820
C -34.458640 38.271027 -39.798807
C -34.701460 41.841961 -35.743025
C -41.382620 38.998523 -34.132618
C -41.300796 45.714090 -32.371933
C -37.619461 47.642861 -34.475705
C -37.203215 38.754510 -34.108922
H -34.405617 41.957367 -35.900743
H -35.061762 40.677119 -35.714768
H -22.564319 27.597029 -31.296154
H -42.755849 36.677791 -33.710875
H -29.313761 54.082602 -20.070717
H -37.500152 40.299261 -33.977786
12
Step 821
C -34.456012 38.266654 -39.803201
C -34.699460 41.841865 -35.744586
C -41.387990 38.995243 -34.133256
C -41.304404 45.719193 -32.370641
C -37.617962 47.650122 -34.474920
C -37.202186 38.750523 -34.106553
H -34.406042 41.956869 -35.900220
H -35.063474 40.678082 -35.709641
H -22.547745 27.579958 -31.294714
H -42.759009 36.673822 -33.712813
H -29.300875 54.097339 -20.052712
H -37.502619 40.297603 -33.975353
12
Step 822
C -34.453384 38.262280 -39.807594
C -34.697559 41.841716 -35.746096
C -41.393359 38.991964 -34.133894
C -41.308011 45.724297 -32.369350
C -37.616462 47.657383 -34.474136
C -37.201160 38.746549 -34.104183
H -34.405269 41.956967 -35.900314
H -35.065249 40.679080 -35.704464
H -22.531170 27.562887 -31.293275
H -42.762168 36.669854 -33.714751
H -29.287988 54.112075 -20.034707
H -37.505010 40.295799 -33.972968
12
Step 823
C -34.450756 38.257907 -39.811988
C -34.695763 41.841511 -35.747553
C -41.398728 38.988684 -34.134532
C -41.311618 45.729400 -32.368059
C -37.614963 47.664645 -34.473351
C -37.200137 38.742587 -34.101812
H -34.403230 41.957688 -35.901060
H -35.067086 40.680116 -35.699240
H -22.514596 27.545815 -31.291836
H -42.765327 36.665887 -33.716689
H -29.275102 54.126812 -20.016702
H -37.507327 40.293847 -33.970629
12
Step 824
C -34.448128 38.253533 -39.816382
C -34.694073 41.841249 -35.748956
C -41.404096 38.985405 -34.135169
C -41.315225 45.734504 -32.366767
C -37.613464 47.671906 -34.472566
C -37.199116 38.738640 -34.099440
H -34.399925 41.959034 -35.902455
H -35.068985 40.681186 -35.693967
H -22.498022 27.528744 -31.290396
H -42.768485 36.661921 -33.718628
H -29.262215 54.141548 -19.998697
H -37.509568 40.291748 -33.968338
12
Step 825
C -34.445500 38.249160 -39.820775
C -34.692481 41.840933 -35.750310
C -41.409463 38.982125 -34.135807
C -41.318832 45.739607 -32.365476
C -37.611965 47.679167 -34.471781
C -37.198099 38.734705 -34.097067
H -34.395430 41.960982 -35.904455
H -35.070950 40.682291 -35.688646
H -22.481447 27.511673 -31.288957
H -42.771642 36.657956 -33.720566
H -29.249329 54.156285 -19.980691
H -37.511733 40.289499 -33.966094
12
Step 826
C -34.442872 38.244787 -39.825169
C -34.690970 41.840570 -35.751623
C -41.414830 38.978846 -34.136445
C -41.322438 45.744711 -32.364185
C -37.610466 47.686428 -34.470997
C -37.197084 38.730785 -34.094693
H -34.389960 41.963453 -35.906948
H -35.072983 40.683421 -35.683275
H -22.464873 27.494602 -31.287518
H -42.774799 36.653992 -33.722505
H -29.236442 54.171021 -19.962686
H -37.513821 40.287100 -33.963898
12
Step 827
C -34.440244 38.240413 -39.829563
C -34.689515 41.840169 -35.752909
C -41.420196 38.975566 -34.137083
C -41.326045 45.749815 -32.362894
C -37.608967 47.693689 -34.470212
C -37.196073 38.726877 -34.092318
H -34.383799 41.966334 -35.909785
H -35.075087 40.684578 -35.677853
H -22.448299 27.477530 -31.286078
H -42.777956 36.650029 -33.724444
H -29.223556 54.185758 -19.944681
H -37.515829 40.284550 -33.961751
12
Step 828
C -34.437616 38.236040 -39.833956
C -34.688089 41.839742 -35.754181
C -41.425562 38.972286 -34.137721
C -41.329651 45.754919 -32.361603
C -37.607469 47.700950 -34.469427
C -37.195064 38.722984 -34.089942
H -34.377279 41.969491 -35.912795
H -35.077264 40.685763 -35.672378
H -22.431724 27.460459 -31.284639
H -42.781112 36.646066 -33.726384
H -29.210669 54.200495 -19.926676
H -37.517756 40.281850 -33.959654
12
Step 829
C -34.434988 38.231666 -39.838350
C -34.686663 41.839299 -35.755455
C -41.430926 38.969007 -34.138358
C -41.333258 45.760023 -32.360312
C -37.605970 47.708211 -34.468641
C -37.194058 38.719104 -34.087565
H -34.370737 41.972779 -35.915806
H -35.079510 40.686985 -35.666850
H -22.415150 27.443388 -31.283200
H -42.784267 36.642105 -33.728323
H -29.197782 54.215231 -19.908670
H -37.519601 40.278997 -33.957608
12
Step 830
C -34.432360 38.227293 -39.842743
C -34.685218 41.838849 -35.756739
C -41.436291 38.965727 -34.138996
C -41.336864 45.765127 -32.359022
C -37.604472 47.715471 -34.467856
C -37.193055 38.715238 -34.085188
H -34.364422 41.976086 -35.918695
H -35.081820 40.688261 -35.661273
H -22.398575 27.426316 -31.281760
H -42.787423 36.638143 -33.730263
H -29.184896 54.229968 -19.890665
H -37.521361 40.275994 -33.955613
12
Step 831
C -34.429732 38.222920 -39.847137
C -34.683734 41.838400 -35.758044
C -41.441654 38.962447 -34.139634
C -41.340470 45.770231 -32.357731
C -37.602974 47.722732 -34.467071
C -37.192055 38.711386 -34.082809
H -34.358573 41.979304 -35.921342
H -35.084189 40.689596 -35.655647
H -22.382001 27.409245 -31.280321
H -42.790577 36.634183 -33.732202
H -29.172009 54.244704 -19.872660
H -37.523037 40.272840 -33.953669
12
Step 832
C -34.427104 38.218546 -39.851530
C -34.682200 41.837958 -35.759376
C -41.447017 38.959168 -34.140271
C -41.344076 45.775335 -32.356440
C -37.601476 47.729992 -34.466286
C -37.191058 38.707548 -34.080430
H -34.353318 41.982367 -35.923686
H -35.086615 40.690990 -35.649974
H -22.365427 27.392174 -31.278882
H -42.793732 36.630223 -33.734142
H -29.159123 54.259441 -19.854655
H -37.524627 40.269535 -33.951777
12
Step 833
C -34.424476 38.214173 -39.855923
C -34.680608 41.837527 -35.760736
C -41.452379 38.955888 -34.140909
C -41.347682 45.780439 -32.355150
C -37.599978 47.737253 -34.465500
C -37.190063 38.703724 -34.078050
H -34.348752 41.985228 -35.925681
H -35.089101 40.692436 -35.644254
H -22.348852 27.375103 -31.277442
H -42.796886 36.626264 -33.736082
H -29.146236 54.274177 -19.836650
H -37.526132 40.266080 -33.949937
12
Step 834
C -34.421848 38.209800 -39.860317
C -34.678947 41.837114 -35.762132
C -41.457741 38.952608 -34.141547
C -41.351287 45.785543 -32.353859
C -37.598480 47.744513 -34.464715
C -37.189071 38.699914 -34.075670
H -34.345016 41.987813 -35.927261
H -35.091645 40.693930 -35.638488
H -22.332278 27.358031 -31.276003
H -42.800040 36.622305 -33.738022
H -29.133350 54.288914 -19.818644
H -37.527551 40.262473 -33.948147
12
Step 835
C -34.419221 38.205427 -39.864710
C -34.677208 41.836723 -35.763567
C -41.463102 38.949329 -34.142184
C -41.354893 45.790648 -32.352569
C -37.596983 47.751774 -34.463929
C -37.188083 38.696119 -34.073289
H -34.342205 41.990069 -35.928382
H -35.094246 40.695469 -35.632679
H -22.315703 27.340960 -31.274564
H -42.803194 36.618346 -33.739962
H -29.120463 54.303651 -19.800639
H -37.528887 40.258715 -33.946407
12
Step 836
C -34.416593 38.201053 -39.869104
C -34.675388 41.836357 -35.765043
C -41.468463 38.946049 -34.142822
C -41.358498 45.795752 -32.351278
C -37.595485 47.759034 -34.463144
C -37.187097 38.692337 -34.070907
H -34.340367 41.991961 -35.929024
H -35.096902 40.697056 -35.626826
H -22.299129 27.323889 -31.273124
H -42.806347 36.614388 -33.741902
H -29.107577 54.318387 -19.782634
H -37.530138 40.254805 -33.944716
12
Step 837
C -34.413965 38.196680 -39.873497
C -34.673486 41.836017 -35.766558
C -41.473822 38.942770 -34.143459
C -41.362104 45.800857 -32.349988
C -37.593988 47.766295 -34.462358
C -37.186113 38.688569 -34.068524
H -34.339515 41.993471 -35.929183
H -35.099609 40.698692 -35.620934
H -22.282555 27.306817 -31.271685
H -42.809500 36.610430 -33.743842
H -29.094690 54.333124 -19.764629
H -37.531306 40.250745 -33.943075
12
Step 838
C -34.411337 38.192307 -39.877890
C -34.671504 41.835704 -35.768113
C -41.479182 38.939490 -34.144097
C -41.365709 45.805961 -32.348698
C -37.592490 47.773555 -34.461572
C -37.185133 38.684816 -34.066141
H -34.339624 41.994597 -35.928876
H -35.102361 40.700383 -35.615003
H -22.265980 27.289746 -31.270246
H -42.812653 36.606473 -33.745783
H -29.081803 54.347860 -19.746624
H -37.532391 40.246532 -33.941481
12
Step 839
C -34.408709 38.187933 -39.882284
C -34.669447 41.835414 -35.769704
C -41.484540 38.936211 -34.144734
C -41.369314 45.811066 -32.347408
C -37.590993 47.780815 -34.460787
C -37.184155 38.681077 -34.063757
H -34.340633 41.995356 -35.928134
H -35.105154 40.702136 -35.609038
H -22.249406 27.272675 -31.268806
H -42.815806 36.602515 -33.747723
H -29.068917 54.362597 -19.728618
H -37.533394 40.242168 -33.939935
12
Step 840
C -34.406081 38.183560 -39.886677
C -34.667327 41.835145 -35.771325
C -41.489898 38.932931 -34.145371
C -41.372919 45.816170 -32.346118
C -37.589496 47.788075 -34.460001
C -37.183181 38.677352 -34.061372
H -34.342432 41.995786 -35.927015
H -35.107979 40.703962 -35.603042
H -22.232832 27.255604 -31.267367
H -42.818959 36.598558 -33.749664
H -29.056030 54.377333 -19.710613
H -37.534314 40.237651 -33.938436
12
Step 841
C -34.403453 38.179187 -39.891071
C -34.665154 41.834890 -35.772972
C -41.495255 38.929652 -34.146009
C -41.376524 45.821275 -32.344827
C -37.587999 47.795335 -34.459215
C -37.182209 38.673641 -34.058987
H -34.344884 41.995943 -35.925587
H -35.110830 40.705874 -35.597019
H -22.216257 27.238532 -31.265928
H -42.822112 36.594601 -33.751604
H -29.043144 54.392070 -19.692608
H -37.535154 40.232982 -33.936982
12
Step 842
C -34.400825 38.174814 -39.895464
C -34.662939 41.834644 -35.774639
C -41.500612 38.926372 -34.146646
C -41.380129 45.826380 -32.343537
C -37.586502 47.802595 -34.458429
C -37.181240 38.669944 -34.056601
H -34.347871 41.995873 -35.923908
H -35.113697 40.707887 -35.590973
H -22.199683 27.221461 -31.264488
H -42.825264 36.590645 -33.753545
H -29.030257 54.406806 -19.674603
H -37.535912 40.228160 -33.935575
12
Step 843
C -34.398197 38.170440 -39.899857
C -34.660692 41.834403 -35.776320
C -41.505968 38.923093 -34.147284
C -41.383734 45.831484 -32.342247
C -37.585005 47.809855 -34.457643
C -37.180274 38.666262 -34.054214
H -34.351282 41.995621 -35.922033
H -35.116572 40.710011 -35.584909
H -22.183108 27.204390 -31.263049
H -42.828417 36.586688 -33.755485
H -29.017371 54.421543 -19.656598
H -37.536590 40.223185 -33.934212
12
Step 844
C -34.395569 38.166067 -39.904251
C -34.658427 41.834161 -35.778010
C -41.511324 38.919814 -34.147921
C -41.387338 45.836589 -32.340958
C -37.583508 47.817115 -34.456857
C -37.179312 38.662593 -34.051826
H -34.354950 41.995268 -35.920041
H -35.119460 40.712238 -35.578827
H -22.166534 27.187318 -31.261610
H -42.831569 36.582731 -33.757426
H -29.004484 54.436280 -19.638592
H -37.537188 40.218055 -33.932893
12
Step 845
C -34.392941 38.161694 -39.908644
C -34.656166 41.833906 -35.779697
C -41.516679 38.916534 -34.148558
C -41.390943 45.841694 -32.339668
C -37.582012 47.824375 -34.456071
C -37.178352 38.658939 -34.049438
H -34.358595 41.994957 -35.918067
H -35.122358 40.714565 -35.572726
H -22.149960 27.170247 -31.260170
H -42.834722 36.578775 -33.759366
H -28.991598 54.451016 -19.620587
H -37.537707 40.212770 -33.931619
12
Step 846
C -34.390313 38.157320 -39.913037
C -34.653939 41.833623 -35.781369
C -41.522033 38.913255 -34.149196
C -41.394548 45.846799 -32.338378
C -37.580515 47.831635 -34.455285
C -37.177396 38.655298 -34.047049
H -34.361888 41.994866 -35.916261
H -35.125267 40.716987 -35.566609
H -22.133385 27.153176 -31.258731
H -42.837874 36.574818 -33.761307
H -28.978711 54.465753 -19.602582
H -37.538145 40.207331 -33.930388
12
Step 847
C -34.387685 38.152947 -39.917431
C -34.651771 41.833297 -35.783012
C -41.527387 38.909976 -34.149833
C -41.398152 45.851904 -32.337088
C -37.579019 47.838895 -34.454499
C -37.176443 38.651672 -34.044659
H -34.364502 41.995180 -35.914773
H -35.128190 40.719498 -35.560475
H -22.116811 27.136105 -31.257292
H -42.841027 36.570861 -33.763247
H -28.965824 54.480489 -19.584577
H -37.538505 40.201737 -33.929199
12
Step 848
C -34.385057 38.148574 -39.921824
C -34.649686 41.832916 -35.784618
C -41.532740 38.906697 -34.150470
C -41.401756 45.857009 -32.335798
C -37.577522 47.846154 -34.453713
C -37.175493 38.648059 -34.042268
H -34.366173 41.996059 -35.913724
H -35.131126 40.722092 -35.554325
H -22.100237 27.119033 -31.255852
H -42.844180 36.566904 -33.765188
H -28.952938 54.495226 -19.566572
H -37.538786 40.195988 -33.928053
12
Step 849
C -34.382429 38.144201 -39.926218
C -34.647701 41.832468 -35.786177
C -41.538092 38.903418 -34.151107
C -41.405361 45.862114 -32.334509
C -37.576026 47.853414 -34.452926
C -37.174547 38.644460 -34.039877
H -34.366669 41.997648 -35.913213
H -35.134075 40.724769 -35.548161
H -22.083662 27.101962 -31.254413
H -42.847332 36.562947 -33.767129
H -28.940051 54.509962 -19.548566
H -37.538989 40.190085 -33.926948
12
Step 850
C -34.379801 38.139827 -39.930611
C -34.645823 41.831948 -35.787687
C -41.543444 38.900139 -34.151745
C -41.408965 45.867219 -32.333219
C -37.574529 47.860674 -34.452140
C -37.173604 38.640875 -34.037484
H -34.365924 41.999998 -35.913268
H -35.137036 40.727526 -35.541983
H -22.067088 27.084891 -31.252974
H -42.850485 36.558990 -33.769069
H -28.927165 54.524699 -19.530561
H -37.539115 40.184027 -33.925884
12
Step 851
C -34.377173 38.135454 -39.935004
C -34.644052 41.831356 -35.789149
C -41.548795 38.896860 -34.152382
C -41.412569 45.872324 -32.331929
C -37.573033 47.867934 -34.451354
C -37.172665 38.637304 -34.035091
H -34.363948 42.003116 -35.913881
H -35.140005 40.730368 -35.535794
H -22.050513 27.067820 -31.251534
H -42.853638 36.555032 -33.771010
H -28.914278 54.539435 -19.512556
H -37.539162 40.177815 -33.924860
12
Step 852
C -34.374545 38.131081 -39.939398
C -34.642380 41.830694 -35.790565
C -41.554146 38.893582 -34.153019
C -41.416173 45.877429 -32.330640
C -37.571537 47.875193 -34.450567
C -37.171729 38.633747 -34.032697
H -34.360823 42.006957 -35.915011
H -35.142976 40.733303 -35.529598
H -22.033939 27.050748 -31.250095
H -42.856791 36.551074 -33.772950
H -28.901392 54.554172 -19.494551
H -37.539133 40.171448 -33.923876
12
Step 853
C -34.371917 38.126707 -39.943791
C -34.640790 41.829974 -35.791945
C -41.559496 38.890303 -34.153656
C -41.419777 45.882534 -32.329350
C -37.570041 47.882453 -34.449781
C -37.170796 38.630204 -34.030301
H -34.356782 42.011380 -35.916550
H -35.145940 40.736340 -35.523399
H -22.017365 27.033677 -31.248655
H -42.859945 36.547115 -33.774891
H -28.888505 54.568909 -19.476546
H -37.539028 40.164928 -33.922931
12
Step 854
C -34.369289 38.122334 -39.948184
C -34.639259 41.829209 -35.793297
C -41.564846 38.887024 -34.154293
C -41.423381 45.887639 -32.328061
C -37.568545 47.889712 -34.448995
C -37.169867 38.626674 -34.027906
H -34.352083 42.016218 -35.918384
H -35.148886 40.739494 -35.517204
H -22.000790 27.016606 -31.247216
H -42.863099 36.543157 -33.776831
H -28.875619 54.583645 -19.458540
H -37.538849 40.158254 -33.922023
12
Step 855
C -34.366661 38.117961 -39.952578
C -34.637763 41.828414 -35.794634
C -41.570195 38.883746 -34.154930
C -41.426985 45.892745 -32.326771
C -37.567049 47.896972 -34.448208
C -37.168941 38.623158 -34.025509
H -34.347047 42.021260 -35.920369
H -35.151804 40.742777 -35.511017
H -21.984216 26.999534 -31.245777
H -42.866252 36.539197 -33.778771
H -28.862732 54.598382 -19.440535
H -37.538596 40.151426 -33.921153
12
Step 856
C -34.364033 38.113588 -39.956971
C -34.636277 41.827605 -35.795965
C -41.575544 38.880468 -34.155567
C -41.430588 45.897850 -32.325482
C -37.565553 47.904231 -34.447422
C -37.168019 38.619656 -34.023112
H -34.341968 42.026307 -35.922378
H -35.154682 40.746207 -35.504847
H -21.967642 26.982463 -31.244337
H -42.869407 36.535237 -33.780711
H -28.849845 54.613118 -19.422530
H -37.538270 40.144446 -33.920319
12
Step 857
C -34.361405 38.109214 -39.961365
C -34.634781 41.826798 -35.797299
C -41.580891 38.877189 -34.156204
C -41.434192 45.902955 -32.324192
C -37.564057 47.911491 -34.446635
C -37.167099 38.616168 -34.020714
H -34.337107 42.031176 -35.924297
H -35.157513 40.749791 -35.498697
H -21.951067 26.965392 -31.242898
H -42.872561 36.531277 -33.782652
H -28.836959 54.627855 -19.404525
H -37.537873 40.137315 -33.919519
12
Step 858
C -34.358777 38.104841 -39.965758
C -34.633257 41.826002 -35.798644
C -41.586239 38.873911 -34.156842
C -41.437796 45.908060 -32.322903
C -37.562562 47.918750 -34.445848
C -37.166182 38.612694 -34.018316
H -34.332662 42.035728 -35.926042
H -35.160288 40.753536 -35.492573
H -21.934493 26.948321 -31.241459
H -42.875716 36.527316 -33.784592
H -28.824072 54.642591 -19.386520
H -37.537407 40.130034 -33.918752
12
Step 859
C -34.356149 38.100468 -39.970151
C -34.631700 41.825222 -35.800001
C -41.591586 38.870633 -34.157479
C -41.441399 45.913166 -32.321614
C -37.561066 47.926009 -34.445062
C -37.165269 38.609233 -34.015917
H -34.328709 42.039899 -35.927582
H -35.162997 40.757454 -35.486482
H -21.917918 26.931249 -31.240019
H -42.878871 36.523354 -33.786532
H -28.811186 54.657328 -19.368514
H -37.536876 40.122603 -33.918017
12
Step 860
C -34.353522 38.096094 -39.974545
C -34.630106 41.824463 -35.801372
C -41.596932 38.867355 -34.158116
C -41.445003 45.918271 -32.320324
C -37.559570 47.933269 -34.444275
C -37.164358 38.605786 -34.013518
H -34.325307 42.043641 -35.928892
H -35.165641 40.761540 -35.480424
H -21.901344 26.914178 -31.238580
H -42.882027 36.519392 -33.788471
H -28.798299 54.672065 -19.350509
H -37.536282 40.115026 -33.917311
12
Step 861
C -34.350894 38.091721 -39.978938
C -34.628463 41.823734 -35.802763
C -41.602278 38.864077 -34.158753
C -41.448606 45.923377 -32.319035
C -37.558075 47.940528 -34.443489
C -37.163451 38.602352 -34.011118
H -34.322581 42.046858 -35.929921
H -35.168217 40.765790 -35.474400
H -21.884770 26.897107 -31.237141
H -42.885182 36.515429 -33.790411
H -28.785413 54.686801 -19.332504
H -37.535625 40.107306 -33.916634
12
Step 862
C -34.348266 38.087348 -39.983331
C -34.626766 41.823039 -35.804174
C -41.607623 38.860799 -34.159390
C -41.452210 45.928482 -32.317746
C -37.556579 47.947787 -34.442702
C -37.162546 38.598931 -34.008718
H -34.320610 42.049483 -35.930637
H -35.170723 40.770202 -35.468414
H -21.868195 26.880035 -31.235701
H -42.888339 36.511465 -33.792351
H -28.772526 54.701538 -19.314499
H -37.534910 40.099445 -33.915983
12
Step 863
C -34.345638 38.082975 -39.987725
C -34.625011 41.822382 -35.805608
C -41.612967 38.857522 -34.160027
C -41.455813 45.933588 -32.316457
C -37.555084 47.955047 -34.441915
C -37.161643 38.595522 -34.006318
H -34.319429 42.051479 -35.931027
H -35.173157 40.774777 -35.462466
H -21.851621 26.862964 -31.234262
H -42.891496 36.507500 -33.794290
H -28.759640 54.716274 -19.296493
H -37.534137 40.091448 -33.915358
12
Step 864
C -34.343010 38.078601 -39.992118
C -34.623197 41.821764 -35.807064
C -41.618311 38.854244 -34.160664
C -41.459416 45.938693 -32.315168
C -37.553589 47.962306 -34.441128
C -37.160744 38.592126 -34.003918
H -34.319047 42.052832 -35.931088
H -35.175517 40.779515 -35.456559
H -21.835047 26.845893 -31.232823
H -42.894653 36.503534 -33.796230
H -28.746753 54.731011 -19.278488
H -37.533308 40.083318 -33.914758
12
Step 865
C -34.340382 38.074228 -39.996512
C -34.621326 41.821186 -35.808542
C -41.623655 38.850967 -34.161301
C -41.463019 45.943799 -32.313878
C -37.552093 47.969565 -34.440341
C -37.159847 38.588741 -34.001517
H -34.319458 42.053539 -35.930825
H -35.177800 40.784417 -35.450695
H -21.818472 26.828822 -31.231383
H -42.897811 36.499568 -33.798169
H -28.733866 54.745747 -19.260483
H -37.532425 40.075061 -33.914183
12
Step 866
C -34.337754 38.069855 -40.000905
C -34.619400 41.820646 -35.810041
C -41.628998 38.847690 -34.161938
C -41.466623 45.948904 -32.312589
C -37.550598 47.976824 -34.439555
C -37.158952 38.585368 -33.999116
H -34.320635 42.053610 -35.930249
H -35.180003 40.789487 -35.444876
H -21.801898 26.811750 -31.229944
H -42.900969 36.495600 -33.800108
H -28.720980 54.760484 -19.242478
H -37.531488 40.066682 -33.913631
12
Step 867
C -34.335126 38.065481 -40.005298
C -34.617424 41.820140 -35.811558
C -41.634340 38.844413 -34.162575
C -41.470226 45.954010 -32.311300
C -37.549103 47.984083 -34.438768
C -37.158060 38.582005 -33.996715
H -34.322517 42.053088 -35.929387
H -35.182124 40.794727 -35.439105
H -21.785323 26.794679 -31.228505
H -42.904128 36.491632 -33.802047
H -28.708093 54.775220 -19.224473
H -37.530500 40.058187 -33.913102
12
Step 868
C -34.332498 38.061108 -40.009692
C -34.615409 41.819661 -35.813089
C -41.639682 38.841136 -34.163212
C -41.473829 45.959115 -32.310011
C -37.547607 47.991343 -34.437981
C -37.157170 38.578653 -33.994313
H -34.324988 42.052059 -35.928287
H -35.184159 40.800143 -35.433385
H -21.768749 26.777608 -31.227065
H -42.907287 36.487662 -33.803986
H -28.695207 54.789957 -19.206467
H -37.529461 40.049582 -33.912597
12
Step 869
C -34.329870 38.056735 -40.014085
C -34.613361 41.819203 -35.814630
C -41.645024 38.837859 -34.163849
C -41.477432 45.964221 -32.308722
C -37.546112 47.998602 -34.437194
C -37.156282 38.575310 -33.991911
H -34.327958 42.050587 -35.926986
H -35.186105 40.805741 -35.427720
H -21.752175 26.760536 -31.225626
H -42.910447 36.483691 -33.805925
H -28.682320 54.804694 -19.188462
H -37.528371 40.040874 -33.912115
12
Step 870
C -34.327242 38.052362 -40.018478
C -34.611285 41.818763 -35.816181
C -41.650365 38.834582 -34.164485
C -41.481035 45.969327 -32.307433
C -37.544617 48.005861 -34.436407
C -37.155397 38.571976 -33.989509
H -34.331379 42.048710 -35.925505
H -35.187966 40.811514 -35.422107
H -21.735600 26.743465 -31.224187
H -42.913607 36.479720 -33.807863
H -28.669434 54.819430 -19.170457
H -37.527230 40.032071 -33.911657
12
Step 871
C -34.324614 38.047988 -40.022872
C -34.609196 41.818330 -35.817735
C -41.655705 38.831306 -34.165122
C -41.484638 45.974432 -32.306144
C -37.543122 48.013120 -34.435620
C -37.154513 38.568651 -33.987107
H -34.335072 42.046569 -35.923913
H -35.189748 40.817453 -35.416544
H -21.719026 26.726394 -31.222747
H -42.916768 36.475747 -33.809802
H -28.656547 54.834167 -19.152452
H -37.526039 40.023180 -33.911223
12
Step 872
C -34.321986 38.043615 -40.027265
C -34.607113 41.817889 -35.819285
C -41.661045 38.828029 -34.165759
C -41.488241 45.979538 -32.304855
C -37.541627 48.020379 -34.434833
C -37.153632 38.565333 -33.984704
H -34.338798 42.044365 -35.922304
H -35.191457 40.823547 -35.411027
H -21.702452 26.709323 -31.221308
H -42.919930 36.471773 -33.811740
H -28.643661 54.848903 -19.134447
H -37.524797 40.014210 -33.910815
12
Step 873
C -34.319358 38.039242 -40.031659
C -34.605057 41.817421 -35.820822
C -41.666385 38.824753 -34.166396
C -41.491844 45.984644 -32.303566
C -37.540132 48.027638 -34.434046
C -37.152752 38.562022 -33.982302
H -34.342294 42.042322 -35.920779
H -35.193100 40.829787 -35.405553
H -21.685877 26.692251 -31.219869
H -42.923092 36.467797 -33.813678
H -28.630774 54.863640 -19.116441
H -37.523504 40.005169 -33.910432
12
Step 874
C -34.316730 38.034869 -40.036052
C -34.603054 41.816905 -35.822337
C -41.671724 38.821477 -34.167033
C -41.495447 45.989749 -32.302277
C -37.538637 48.034897 -34.433259
C -37.151875 38.558717 -33.979898
H -34.345264 42.040700 -35.919450
H -35.194682 40.836162 -35.400119
H -21.669303 26.675180 -31.218429
H -42.926255 36.463821 -33.815616
H -28.617887 54.878376 -19.098436
H -37.522162 39.996063 -33.910074
12
Step 875
C -34.314102 38.030495 -40.040445
C -34.601122 41.816324 -35.823824
C -41.677062 38.818201 -34.167670
C -41.499050 45.994855 -32.300988
C -37.537142 48.042156 -34.432472
C -37.150999 38.555418 -33.977495
H -34.347462 42.039729 -35.918410
H -35.196214 40.842658 -35.394721
H -21.652728 26.658109 -31.216990
H -42.929419 36.459843 -33.817553
H -28.605001 54.893113 -19.080431
H -37.520773 39.986901 -33.909741
12
Step 876
C -34.311474 38.026122 -40.044839
C -34.599280 41.815660 -35.825275
C -41.682400 38.814925 -34.168307
C -41.502653 45.999961 -32.299699
C -37.535647 48.049415 -34.431685
C -37.150124 38.552124 -33.975091
H -34.348670 42.039616 -35.917738
H -35.197702 40.849265 -35.389355
H -21.636154 26.641037 -31.215551
H -42.932583 36.455864 -33.819491
H -28.592114 54.907849 -19.062426
H -37.519337 39.977690 -33.909433
12
Step 877
C -34.308846 38.021749 -40.049232
C -34.597535 41.814906 -35.826688
C -41.687738 38.811649 -34.168944
C -41.506256 46.005066 -32.298410
C -37.534152 48.056674 -34.430898
C -37.149251 38.548834 -33.972688
H -34.348776 42.040478 -35.917475
H -35.199154 40.855970 -35.384017
H -21.619580 26.623966 -31.214111
H -42.935748 36.451883 -33.821428
H -28.579228 54.922586 -19.044421
H -37.517855 39.968439 -33.909149
12
Step 878
C -34.306218 38.017375 -40.053625
C -34.595893 41.814056 -35.828061
C -41.693075 38.808374 -34.169581
C -41.509858 46.010172 -32.297121
C -37.532657 48.063933 -34.430111
C -37.148379 38.545548 -33.970283
H -34.347732 42.042375 -35.917632
H -35.200573 40.862767 -35.378705
H -21.603005 26.606895 -31.212672
H -42.938914 36.447901 -33.823365
H -28.566341 54.937323 -19.026415
H -37.516329 39.959153 -33.908890
12
Step 879
C -34.303590 38.013002 -40.058019
C -34.594348 41.813114 -35.829398
C -41.698412 38.805099 -34.170218
C -41.513461 46.015278 -32.295832
C -37.531162 48.071192 -34.429324
C -37.147509 38.542265 -33.967879
H -34.345605 42.045261 -35.918182
H -35.201957 40.869660 -35.373422
H -21.586431 26.589824 -31.211233
H -42.942081 36.443918 -33.825302
H -28.553455 54.952059 -19.008410
H -37.514759 39.949841 -33.908656
12
Step 880
C -34.300962 38.008629 -40.062412
C -34.592889 41.812088 -35.830701
C -41.703748 38.801823 -34.170854
C -41.517064 46.020384 -32.294543
C -37.529667 48.078451 -34.428537
C -37.146640 38.538984 -33.965474
H -34.342524 42.049025 -35.919071
H -35.203299 40.876657 -35.368173
H -21.569857 26.572752 -31.209793
H -42.945248 36.439933 -33.827238
H -28.540568 54.966796 -18.990405
H -37.513148 39.940510 -33.908446
12
Step 881
C -34.298334 38.004256 -40.066806
C -34.591497 41.810997 -35.831978
C -41.709084 38.798549 -34.171491
C -41.520667 46.025489 -32.293255
C -37.528172 48.085710 -34.427750
C -37.145771 38.535706 -33.963070
H -34.338725 42.053452 -35.920212
H -35.204591 40.883767 -35.362962
H -21.553282 26.555681 -31.208354
H -42.948416 36.435947 -33.829175
H -28.527682 54.981532 -18.972400
H -37.511496 39.931164 -33.908261
12
Step 882
C -34.295706 37.999882 -40.071199
C -34.590153 41.809858 -35.833236
C -41.714419 38.795274 -34.172128
C -41.524270 46.030595 -32.291966
C -37.526677 48.092969 -34.426963
C -37.144903 38.532429 -33.960665
H -34.334461 42.058305 -35.921509
H -35.205823 40.891002 -35.357797
H -21.536708 26.538610 -31.206914
H -42.951585 36.431959 -33.831111
H -28.514795 54.996269 -18.954395
H -37.509804 39.921812 -33.908100
12
Step 883
C -34.293078 37.995509 -40.075592
C -34.588832 41.808694 -35.834483
C -41.719754 38.791999 -34.172765
C -41.527872 46.035701 -32.290677
C -37.525182 48.100228 -34.426176
C -37.144036 38.529154 -33.958260
H -34.330015 42.063310 -35.922861
H -35.206988 40.898372 -35.352682
H -21.520133 26.521538 -31.205475
H -42.954754 36.427970 -33.833047
H -28.501908 55.011005 -18.936389
H -37.508073 39.912457 -33.907963
12
Step 884
C -34.290450 37.991136 -40.079986
C -34.587515 41.807524 -35.835726
C -41.725088 38.788725 -34.173402
C -41.531475 46.040807 -32.289388
C -37.523688 48.107487 -34.425389
C -37.143169 38.525879 -33.955855
H -34.325643 42.068219 -35.924180
H -35.208077 40.905887 -35.347625
H -21.503559 26.504467 -31.204036
H -42.957925 36.423979 -33.834983
H -28.489022 55.025742 -18.918384
H -37.506304 39.903106 -33.907851
12
Step 885
C -34.287823 37.986762 -40.084379
C -34.586184 41.806366 -35.836971
C -41.730422 38.785450 -34.174039
C -41.535078 46.045912 -32.288099
C -37.522193 48.114746 -34.424602
C -37.142303 38.522605 -33.953450
H -34.321559 42.072818 -35.925392
H -35.209082 40.913556 -35.342633
H -21.486985 26.487396 -31.202596
H -42.961096 36.419986 -33.836918
H -28.476135 55.040479 -18.900379
H -37.504499 39.893762 -33.907763
12
Step 886
C -34.285195 37.982389 -40.088772
C -34.584829 41.805230 -35.838220
C -41.735756 38.782176 -34.174676
C -41.538681 46.051018 -32.286810
C -37.520698 48.122005 -34.423815
C -37.141436 38.519332 -33.951045
H -34.317883 42.076982 -35.926457
H -35.209993 40.921391 -35.337713
H -21.470410 26.470325 -31.201157
H -42.964268 36.415992 -33.838854
H -28.463249 55.055215 -18.882374
H -37.502660 39.884429 -33.907698
12
Step 887
C -34.282567 37.978016 -40.093166
C -34.583440 41.804127 -35.839477
C -41.741089 38.778902 -34.175313
C -41.542284 46.056124 -32.285521
C -37.519203 48.129264 -34.423028
C -37.140570 38.516059 -33.948640
H -34.314747 42.080573 -35.927333
H -35.210812 40.929387 -35.332865
H -21.453836 26.453253 -31.199718
H -42.967441 36.411996 -33.840789
H -28.450362 55.069952 -18.864369
H -37.500787 39.875109 -33.907655
12
Step 888
C -34.279939 37.973643 -40.097559
C -34.582008 41.803066 -35.840744
C -41.746422 38.775629 -34.175950
C -41.545886 46.061230 -32.284232
C -37.517708 48.136523 -34.422241
C -37.139704 38.512785 -33.946235
H -34.312245 42.083490 -35.927991
H -35.211543 40.937535 -35.328086
H -21.437262 26.436182 -31.198278
H -42.970615 36.407998 -33.842724
H -28.437476 55.084688 -18.846363
H -37.498881 39.865803 -33.907635
12
Step 889
C -34.277311 37.969269 -40.101953
C -34.580527 41.802054 -35.842023
C -41.751754 38.772355 -34.176586
C -41.549489 46.066336 -32.282943
C -37.516213 48.143782 -34.421454
C -37.138839 38.509512 -33.943831
H -34.310441 42.085663 -35.928414
H -35.212189 40.945833 -35.323375
H -21.420687 26.419111 -31.196839
H -42.973790 36.403999 -33.844658
H -28.424589 55.099425 -18.828358
H -37.496940 39.856514 -33.907638
12
Step 890
C -34.274683 37.964896 -40.106346
C -34.578994 41.801096 -35.843316
C -41.757086 38.769082 -34.177223
C -41.553092 46.071441 -32.281655
C -37.514718 48.151041 -34.420667
C -37.137973 38.506238 -33.941426
H -34.309383 42.087034 -35.928587
H -35.212752 40.954273 -35.318731
H -21.404113 26.402040 -31.195400
H -42.976965 36.399998 -33.846592
H -28.411703 55.114161 -18.810353
H -37.494963 39.847242 -33.907666
12
Step 891
C -34.272055 37.960523 -40.110739
C -34.577407 41.800195 -35.844622
C -41.762418 38.765808 -34.177860
C -41.556695 46.076547 -32.280366
C -37.513223 48.158300 -34.419880
C -37.137107 38.502965 -33.939021
H -34.309093 42.087575 -35.928509
H -35.213237 40.962852 -35.314154
H -21.387538 26.384968 -31.193960
H -42.980142 36.395995 -33.848527
H -28.398816 55.128898 -18.792348
H -37.492949 39.837987 -33.907719
12
Step 892
C -34.269427 37.956149 -40.115133
C -34.575766 41.799350 -35.845941
C -41.767749 38.762535 -34.178497
C -41.560297 46.081653 -32.279077
C -37.511729 48.165559 -34.419093
C -37.136242 38.499692 -33.936617
H -34.309567 42.087282 -35.928183
H -35.213644 40.971567 -35.309642
H -21.370964 26.367897 -31.192521
H -42.983320 36.391990 -33.850460
H -28.385929 55.143634 -18.774343
H -37.490893 39.828749 -33.907799
12
Step 893
C -34.266799 37.951776 -40.119526
C -34.574072 41.798560 -35.847272
C -41.773080 38.759263 -34.179134
C -41.563900 46.086759 -32.277788
C -37.510234 48.172817 -34.418306
C -37.135377 38.496419 -33.934212
H -34.310780 42.086177 -35.927621
H -35.213977 40.980416 -35.305197
H -21.354390 26.350826 -31.191082
H -42.986498 36.387983 -33.852394
H -28.373043 55.158371 -18.756337
H -37.488794 39.819527 -33.907907
12
Step 894
C -34.264171 37.947403 -40.123919
C -34.572332 41.797821 -35.848613
C -41.778410 38.755990 -34.179771
C -41.567503 46.091864 -32.276499
C -37.508739 48.180076 -34.417519
C -37.134512 38.493147 -33.931808
H -34.312678 42.084311 -35.926844
H -35.214235 40.989396 -35.300819
H -21.337815 26.333754 -31.189642
H -42.989678 36.383975 -33.854327
H -28.360156 55.173108 -18.738332
H -37.486648 39.810320 -33.908044
12
Step 895
C -34.261543 37.943030 -40.128313
C -34.570549 41.797128 -35.849961
C -41.783740 38.752718 -34.180408
C -41.571106 46.096970 -32.275210
C -37.507244 48.187335 -34.416732
C -37.133647 38.489875 -33.929404
H -34.315195 42.081752 -35.925877
H -35.214423 40.998502 -35.296508
H -21.321241 26.316683 -31.188203
H -42.992858 36.379964 -33.856260
H -28.347270 55.187844 -18.720327
H -37.484450 39.801127 -33.908213
12
Step 896
C -34.258915 37.938656 -40.132706
C -34.568735 41.796470 -35.851314
C -41.789070 38.749445 -34.181045
C -41.574708 46.102076 -32.273921
C -37.505749 48.194594 -34.415944
C -37.132783 38.486605 -33.926999
H -34.318212 42.078626 -35.924761
H -35.214547 41.007728 -35.292261
H -21.304667 26.299612 -31.186764
H -42.996039 36.375952 -33.858193
H -28.334383 55.202581 -18.702322
H -37.482197 39.791946 -33.908416
12
Step 897
C -34.256287 37.934283 -40.137100
C -34.566902 41.795832 -35.852666
C -41.794399 38.746173 -34.181682
C -41.578311 46.107182 -32.272632
C -37.504254 48.201853 -34.415157
C -37.131920 38.483337 -33.924595
H -34.321555 42.075124 -35.923553
H -35.214616 41.017062 -35.288074
H -21.288092 26.282541 -31.185324
H -42.999222 36.371937 -33.860126
H -28.321497 55.217317 -18.684316
H -37.479883 39.782776 -33.908654
12
Step 898
C -34.253659 37.929910 -40.141493
C -34.565068 41.795196 -35.854013
C -41.799728 38.742902 -34.182319
C -41.581914 46.112288 -32.271343
C -37.502759 48.209112 -34.414370
C -37.131057 38.480071 -33.922191
H -34.325043 42.071450 -35.922309
H -35.214620 41.026515 -35.283958
H -21.271518 26.265469 -31.183885
H -43.002405 36.367921 -33.862058
H -28.308610 55.232054 -18.666311
H -37.477504 39.773616 -33.908931
12
Step 899
C -34.251031 37.925536 -40.145886
C -34.563247 41.794545 -35.855348
C -41.805057 38.739630 -34.182955
C -41.585517 46.117393 -32.270055
C -37.501264 48.216371 -34.413583
C -37.130194 38.476806 -33.919787
H -34.328487 42.067819 -35.921093
H -35.214578 41.036063 -35.279900
H -21.254943 26.248398 -31.182446
H -43.005590 36.363903 -33.863990
H -28.295723 55.246790 -18.648306
H -37.475054 39.764463 -33.909248
12
Step 900
C -34.248403 37.921163 -40.150280
C -34.561460 41.793855 -35.856667
C -41.810385 38.736359 -34.183592
C -41.589120 46.122499 -32.268766
C -37.499770 48.223630 -34.412796
C -37.129333 38.473545 -33.917382
H -34.331620 42.064541 -35.919986
H -35.214510 41.045684 -35.275889
H -21.238369 26.231327 -31.181006
H -43.008775 36.359882 -33.865922
H -28.282837 55.261527 -18.630301
H -37.472529 39.755315 -33.909608
12
Step 901
C -34.245775 37.916790 -40.154673
C -34.559727 41.793102 -35.857964
C -41.815713 38.733087 -34.184229
C -41.592722 46.127605 -32.267477
C -37.498275 48.230889 -34.412009
C -37.128472 38.470287 -33.914978
H -34.334191 42.061917 -35.919062
H -35.214431 41.055356 -35.271912
H -21.221795 26.214255 -31.179567
H -43.011962 36.355859 -33.867853
H -28.269950 55.276263 -18.612296
H -37.469926 39.746169 -33.910011
12
Step 902
C -34.243147 37.912417 -40.159066
C -34.558065 41.792268 -35.859235
C -41.821040 38.729816 -34.184866
C -41.596325 46.132711 -32.266188
C -37.496780 48.238148 -34.411222
C -37.127613 38.467032 -33.912574
H -34.335994 42.060199 -35.918378
H -35.214354 41.065063 -35.267961
H -21.205220 26.197184 -31.178128
H -43.015149 36.351835 -33.869784
H -28.257064 55.291000 -18.594290
H -37.467244 39.737021 -33.910457
12
Step 903
C -34.240519 37.908043 -40.163460
C -34.556482 41.791338 -35.860478
C -41.826367 38.726545 -34.185503
C -41.599928 46.137816 -32.264899
C -37.495285 48.245407 -34.410435
C -37.126755 38.463781 -33.910170
H -34.336907 42.059546 -35.917967
H -35.214283 41.074798 -35.264033
H -21.188646 26.180113 -31.176688
H -43.018338 36.347808 -33.871715
H -28.244177 55.305737 -18.576285
H -37.464480 39.727867 -33.910945
12
Step 904
C -34.237891 37.903670 -40.167853
C -34.554987 41.790302 -35.861690
C -41.831694 38.723275 -34.186140
C -41.603531 46.142922 -32.263610
C -37.493790 48.252666 -34.409648
C -37.125898 38.460535 -33.907766
H -34.336830 42.060090 -35.917854
H -35.214221 41.084555 -35.260128
H -21.172072 26.163042 -31.175249
H -43.021528 36.343779 -33.873645
H -28.231291 55.320473 -18.558280
H -37.461634 39.718702 -33.911477
12
Step 905
C -34.235263 37.899297 -40.172247
C -34.553579 41.789162 -35.862872
C -41.837021 38.720004 -34.186777
C -41.607133 46.148028 -32.262321
C -37.492295 48.259925 -34.408861
C -37.125043 38.457293 -33.905361
H -34.335779 42.061824 -35.918032
H -35.214171 41.094330 -35.256244
H -21.155497 26.145970 -31.173810
H -43.024719 36.339748 -33.875576
H -28.218404 55.335210 -18.540275
H -37.458701 39.709524 -33.912053
12
Step 906
C -34.232635 37.894923 -40.176640
C -34.552248 41.787928 -35.864027
C -41.842347 38.716734 -34.187414
C -41.610736 46.153134 -32.261032
C -37.490800 48.267184 -34.408074
C -37.124189 38.454056 -33.902957
H -34.333871 42.064615 -35.918472
H -35.214135 41.104118 -35.252382
H -21.138923 26.128899 -31.172370
H -43.027911 36.335714 -33.877506
H -28.205518 55.349946 -18.522270
H -37.455679 39.700328 -33.912674
12
Step 907
C -34.230007 37.890550 -40.181033
C -34.550983 41.786614 -35.865157
C -41.847673 38.713464 -34.188051
C -41.614339 46.158240 -32.259743
C -37.489305 48.274443 -34.407287
C -37.123337 38.450825 -33.900553
H -34.331235 42.068306 -35.919140
H -35.214118 41.113915 -35.248538
H -21.122348 26.111828 -31.170931
H -43.031104 36.331679 -33.879435
H -28.192631 55.364683 -18.504264
H -37.452562 39.691113 -33.913342
12
Step 908
C -34.227379 37.886177 -40.185427
C -34.549770 41.785238 -35.866266
C -41.852998 38.710194 -34.188688
C -41.617942 46.163345 -32.258455
C -37.487811 48.281702 -34.406500
C -37.122487 38.447599 -33.898149
H -34.328050 42.072674 -35.919994
H -35.214121 41.123717 -35.244715
H -21.105774 26.094756 -31.169492
H -43.034298 36.327641 -33.881365
H -28.179744 55.379419 -18.486259
H -37.449345 39.681876 -33.914059
12
Step 909
C -34.224752 37.881804 -40.189820
C -34.548588 41.783825 -35.867357
C -41.858323 38.706925 -34.189325
C -41.621545 46.168451 -32.257166
C -37.486316 48.288961 -34.405713
C -37.121638 38.444381 -33.895745
H -34.324543 42.077431 -35.920981
H -35.214144 41.133522 -35.240915
H -21.089200 26.077685 -31.168052
H -43.037493 36.323601 -33.883294
H -28.166858 55.394156 -18.468254
H -37.446025 39.672616 -33.914827
12
Step 910
C -34.222124 37.877430 -40.194213
C -34.547423 41.782396 -35.868434
C -41.863648 38.703656 -34.189962
C -41.625147 46.173557 -32.255877
C -37.484821 48.296220 -34.404926
C -37.120792 38.441169 -33.893341
H -34.320910 42.082319 -35.922053
H -35.214184 41.143332 -35.237141
H -21.072625 26.060614 -31.166613
H -43.040690 36.319558 -33.885223
H -28.153971 55.408893 -18.450249
H -37.442598 39.663330 -33.915645
12
Step 911
C -34.219496 37.873057 -40.198607
C -34.546255 41.780978 -35.869502
C -41.868972 38.700386 -34.190599
C -41.628750 46.178663 -32.254588
C -37.483326 48.303479 -34.404139
C -37.119947 38.437964 -33.890938
H -34.317397 42.087014 -35.923152
H -35.214243 41.153143 -35.233396
H -21.056051 26.043543 -31.165174
H -43.043887 36.315513 -33.887151
H -28.141085 55.423629 -18.432244
H -37.439061 39.654017 -33.916516
12
Step 912
C -34.216868 37.868684 -40.203000
C -34.545063 41.779596 -35.870565
C -41.874296 38.697118 -34.191236
C -41.632353 46.183768 -32.253299
C -37.481831 48.310738 -34.403352
C -37.119105 38.434767 -33.888535
H -34.314221 42.091222 -35.924229
H -35.214322 41.162951 -35.229678
H -21.039476 26.026471 -31.163734
H -43.047086 36.311466 -33.889080
H -28.128198 55.438366 -18.414238
H -37.435414 39.644676 -33.917438
12
Step 913
C -34.214240 37.864310 -40.207394
C -34.543839 41.778265 -35.871626
C -41.879620 38.693849 -34.191873
C -41.635956 46.188874 -32.252010
C -37.480336 48.317997 -34.402565
C -37.118264 38.431578 -33.886132
H -34.311509 42.094764 -35.925254
H -35.214420 41.172753 -35.225990
H -21.022902 26.009400 -31.162295
H -43.050286 36.307417 -33.891008
H -28.115312 55.453102 -18.396233
H -37.431654 39.635305 -33.918412
12
Step 914
C -34.211612 37.859937 -40.211787
C -34.542573 41.776997 -35.872685
C -41.884944 38.690580 -34.192510
C -41.639558 46.193980 -32.250721
C -37.478841 48.325256 -34.401777
C -37.117425 38.428396 -33.883729
H -34.309363 42.097495 -35.926205
H -35.214541 41.182544 -35.222328
H -21.006328 25.992329 -31.160855
H -43.053487 36.303365 -33.892935
H -28.102425 55.467839 -18.378228
H -37.427782 39.625905 -33.919438
12
Step 915
C -34.208984 37.855564 -40.216180
C -34.541260 41.775802 -35.873745
C -41.890267 38.687312 -34.193148
C -41.643161 46.199086 -32.249432
C -37.477346 48.332515 -34.400990
C -37.116588 38.425222 -33.881327
H -34.307845 42.099320 -35.927070
H -35.214689 41.192317 -35.218691
H -20.989753 25.975257 -31.159416
H -43.056689 36.299311 -33.894863
H -28.089539 55.482575 -18.360223
H -37.423797 39.616477 -33.920516
12
Step 916
C -34.206356 37.851191 -40.220574
C -34.539896 41.774686 -35.874807
C -41.895590 38.684044 -34.193785
C -41.646764 46.204192 -32.248143
C -37.475852 48.339773 -34.400203
C -37.115753 38.422056 -33.878925
H -34.307005 42.100160 -35.927839
H -35.214866 41.202068 -35.215078
H -20.973179 25.958186 -31.157977
H -43.059893 36.295254 -33.896790
H -28.076652 55.497312 -18.342218
H -37.419696 39.607023 -33.921646
12
Step 917
C -34.203728 37.846817 -40.224967
C -34.538478 41.773652 -35.875870
C -41.900912 38.680776 -34.194422
C -41.650367 46.209297 -32.246855
C -37.474357 48.347032 -34.399416
C -37.114920 38.418897 -33.876523
H -34.306863 42.099976 -35.928509
H -35.215075 41.211790 -35.211486
H -20.956605 25.941115 -31.156537
H -43.063097 36.291195 -33.898716
H -28.063765 55.512048 -18.324212
H -37.415481 39.597545 -33.922828
12
Step 918
C -34.201100 37.842444 -40.229360
C -34.537007 41.772702 -35.876934
C -41.906234 38.677509 -34.195059
C -41.653969 46.214403 -32.245566
C -37.472862 48.354291 -34.398629
C -37.114089 38.415747 -33.874122
H -34.307414 42.098764 -35.929083
H -35.215317 41.221482 -35.207916
H -20.940030 25.924044 -31.155098
H -43.066303 36.287133 -33.900643
H -28.050879 55.526785 -18.306207
H -37.411152 39.588044 -33.924062
12
Step 919
C -34.198472 37.838071 -40.233754
C -34.535486 41.771831 -35.878000
C -41.911556 38.674241 -34.195696
C -41.657572 46.219509 -32.244277
C -37.471367 48.361550 -34.397842
C -37.113260 38.412604 -33.871722
H -34.308624 42.096561 -35.929570
H -35.215591 41.231139 -35.204367
H -20.923456 25.906972 -31.153659
H -43.069510 36.283069 -33.902569
H -28.037992 55.541522 -18.288202
H -37.406709 39.578522 -33.925347
12
Step 920
C -34.195844 37.833698 -40.238147
C -34.533920 41.771035 -35.879064
C -41.916878 38.670974 -34.196333
C -41.661175 46.224615 -32.242988
C -37.469872 48.368809 -34.397055
C -37.112433 38.409468 -33.869321
H -34.310433 42.093442 -35.929986
H -35.215897 41.240761 -35.200843
H -20.906881 25.889901 -31.152219
H -43.072719 36.279002 -33.904495
H -28.025106 55.556258 -18.270197
H -37.402155 39.568981 -33.926682
12
Step 921
C -34.193216 37.829324 -40.242541
C -34.532315 41.770304 -35.880127
C -41.922199 38.667707 -34.196970
C -41.664778 46.229720 -32.241699
C -37.468377 48.376068 -34.396268
C -37.111607 38.406339 -33.866922
H -34.312762 42.089510 -35.930351
H -35.216231 41.250346 -35.197343
H -20.890307 25.872830 -31.150780
H -43.075928 36.274933 -33.906420
H -28.012219 55.570995 -18.252192
H -37.397492 39.559425 -33.928066
12
Step 922
C -34.190588 37.824951 -40.246934
C -34.530682 41.769626 -35.881184
C -41.927520 38.664441 -34.197607
C -41.668381 46.234826 -32.240410
C -37.466882 48.383327 -34.395481
C -37.110782 38.403217 -33.864523
H -34.315497 42.084922 -35.930692
H -35.216595 41.259891 -35.193869
H -20.873733 25.855758 -31.149341
H -43.079139 36.270861 -33.908345
H -27.999333 55.585731 -18.234186
H -37.392722 39.549857 -33.929498
12
Step 923
C -34.187960 37.820578 -40.251327
C -34.529031 41.768983 -35.882234
C -41.932841 38.661174 -34.198245
C -41.671983 46.239932 -32.239121
C -37.465388 48.390586 -34.394694
C -37.109960 38.400102 -33.862124
H -34.318493 42.079879 -35.931046
H -35.216988 41.269393 -35.190420
H -20.857158 25.838687 -31.147901
H -43.082351 36.266787 -33.910270
H -27.986446 55.600468 -18.216181
H -37.387848 39.540277 -33.930976
12
Step 924
C -34.185332 37.816204 -40.255721
C -34.527380 41.768353 -35.883273
C -41.938162 38.657908 -34.198882
C -41.675586 46.245038 -32.237832
C -37.463893 48.397845 -34.393907
C -37.109138 38.396994 -33.859726
H -34.321554 42.074663 -35.931460
H -35.217406 41.278854 -35.186999
H -20.840584 25.821616 -31.146462
H -43.085564 36.262710 -33.912195
H -27.973560 55.615204 -18.198176
H -37.382875 39.530687 -33.932499
12
Step 925
C -34.182704 37.811831 -40.260114
C -34.525747 41.767709 -35.884295
C -41.943482 38.654642 -34.199519
C -41.679189 46.250144 -32.236543
C -37.462398 48.405104 -34.393120
C -37.108318 38.393891 -33.857328
H -34.324464 42.069593 -35.931984
H -35.217844 41.288274 -35.183608
H -20.824010 25.804545 -31.145023
H -43.088779 36.258630 -33.914119
H -27.960673 55.629941 -18.180171
H -37.377807 39.521087 -33.934064
12
Step 926
C -34.180076 37.807458 -40.264507
C -34.524143 41.767032 -35.885299
C -41.948802 38.651376 -34.200156
C -41.682792 46.255249 -32.235255
C -37.460903 48.412363 -34.392333
C -37.107500 38.390795 -33.854931
H -34.327085 42.064878 -35.932650
H -35.218294 41.297661 -35.180254
H -20.807435 25.787473 -31.143583
H -43.091994 36.254548 -33.916043
H -27.947786 55.644677 -18.162165
H -37.372650 39.511479 -33.935668
12
Step 927
C -34.177448 37.803085 -40.268901
C -34.522584 41.766302 -35.886281
C -41.954121 38.648111 -34.200794
C -41.686394 46.260355 -32.233966
C -37.459408 48.419622 -34.391546
C -37.106682 38.387704 -33.852535
H -34.329256 42.060769 -35.933489
H -35.218743 41.307023 -35.176945
H -20.790861 25.770402 -31.142144
H -43.095212 36.250463 -33.917967
H -27.934900 55.659414 -18.144160
H -37.367412 39.501864 -33.937308
12
Step 928
C -34.174820 37.798711 -40.273294
C -34.521080 41.765499 -35.887238
C -41.959441 38.644846 -34.201431
C -41.689997 46.265461 -32.232677
C -37.457913 48.426881 -34.390759
C -37.105866 38.384618 -33.850139
H -34.330837 42.057494 -35.934531
H -35.219180 41.316368 -35.173686
H -20.774286 25.753331 -31.140705
H -43.098430 36.246376 -33.919890
H -27.922013 55.674151 -18.126155
H -37.362098 39.492243 -33.938981
12
Step 929
C -34.172192 37.794338 -40.277688
C -34.519643 41.764606 -35.888168
C -41.964760 38.641581 -34.202068
C -41.693600 46.270567 -32.231388
C -37.456418 48.434140 -34.389972
C -37.105050 38.381536 -33.847743
H -34.331704 42.055253 -35.935802
H -35.219597 41.325702 -35.170484
H -20.757712 25.736260 -31.139265
H -43.101649 36.242285 -33.921813
H -27.909127 55.688887 -18.108150
H -37.356714 39.482616 -33.940684
12
Step 930
C -34.169564 37.789965 -40.282081
C -34.518277 41.763613 -35.889070
C -41.970079 38.638316 -34.202705
C -41.697203 46.275672 -32.230099
C -37.454923 48.441399 -34.389185
C -37.104235 38.378460 -33.845349
H -34.331800 42.054150 -35.937314
H -35.219986 41.335031 -35.167346
H -20.741138 25.719188 -31.137826
H -43.104870 36.238192 -33.923736
H -27.896240 55.703624 -18.090145
H -37.351265 39.472987 -33.942415
12
Step 931
C -34.166936 37.785591 -40.286474
C -34.516985 41.762519 -35.889943
C -41.975397 38.635051 -34.203343
C -41.700805 46.280778 -32.228810
C -37.453429 48.448658 -34.388398
C -37.103421 38.375386 -33.842954
H -34.331116 42.054210 -35.939070
H -35.220339 41.344359 -35.164274
H -20.724563 25.702117 -31.136387
H -43.108093 36.234097 -33.925658
H -27.883354 55.718360 -18.072139
H -37.345755 39.463359 -33.944173
12
Step 932
C -34.164308 37.781218 -40.290868
C -34.515763 41.761327 -35.890787
C -41.980716 38.631787 -34.203980
C -41.704408 46.285884 -32.227521
C -37.451934 48.455917 -34.387610
C -37.102607 38.372317 -33.840560
H -34.329683 42.055391 -35.941067
H -35.220654 41.353685 -35.161272
H -20.707989 25.685046 -31.134947
H -43.111316 36.229998 -33.927580
H -27.870467 55.733097 -18.054134
H -37.340187 39.453736 -33.945956
12
Step 933
C -34.161680 37.776845 -40.295261
C -34.514606 41.760048 -35.891604
C -41.986034 38.628523 -34.204618
C -41.708011 46.290990 -32.226232
C -37.450439 48.463176 -34.386823
C -37.101794 38.369250 -33.838167
H -34.327577 42.057578 -35.943290
H -35.220931 41.363007 -35.158341
H -20.691415 25.667974 -31.133508
H -43.114541 36.225897 -33.929502
H -27.857581 55.747833 -18.036129
H -37.334564 39.444123 -33.947766
12
Step 934
C -34.159053 37.772472 -40.299654
C -34.513501 41.758698 -35.892396
C -41.991352 38.625259 -34.205255
C -41.711614 46.296095 -32.224943
C -37.448944 48.470435 -34.386036
C -37.100981 38.366186 -33.835774
H -34.324931 42.060557 -35.945710
H -35.221169 41.372322 -35.155481
H -20.674840 25.650903 -31.132069
H -43.117767 36.221793 -33.931423
H -27.844694 55.762570 -18.018124
H -37.328887 39.434526 -33.949601
12
Step 935
C -34.156425 37.768098 -40.304048
C -34.512437 41.757298 -35.893165
C -41.996670 38.621996 -34.205892
C -41.715217 46.301201 -32.223655
C -37.447449 48.477694 -34.385249
C -37.100169 38.363124 -33.833382
H -34.321887 42.064097 -35.948296
H -35.221372 41.381625 -35.152692
H -20.658266 25.633832 -31.130629
H -43.120994 36.217686 -33.933344
H -27.831807 55.777307 -18.000119
H -37.323158 39.424952 -33.951463
12
Step 936
C -34.153797 37.763725 -40.308441
C -34.511400 41.755871 -35.893914
C -42.001987 38.618732 -34.206530
C -41.718819 46.306307 -32.222366
C -37.445954 48.484953 -34.384462
C -37.099356 38.360064 -33.830990
H -34.318606 42.067934 -35.951010
H -35.221540 41.390909 -35.149973
H -20.641691 25.616761 -31.129190
H -43.124223 36.213577 -33.935265
H -27.818921 55.792043 -17.982113
H -37.317378 39.415407 -33.953351
12
Step 937
C -34.151169 37.759352 -40.312835
C -34.510382 41.754430 -35.894647
C -42.007304 38.615469 -34.207167
C -41.722422 46.311413 -32.221077
C -37.444459 48.492212 -34.383675
C -37.098543 38.357005 -33.828598
H -34.315184 42.071906 -35.953825
H -35.221676 41.400172 -35.147325
H -20.625117 25.599689 -31.127751
H -43.127453 36.209464 -33.937186
H -27.806034 55.806780 -17.964108
H -37.311549 39.405895 -33.955267
12
Step 938
C -34.148541 37.754978 -40.317228
C -34.509368 41.753001 -35.895367
C -42.012621 38.612206 -34.207805
C -41.726025 46.316519 -32.219788
C -37.442964 48.499470 -34.382888
C -37.097730 38.353947 -33.826207
H -34.311804 42.075717 -35.956689
H -35.221775 41.409412 -35.144751
H -20.608543 25.582618 -31.126311
H -43.130684 36.205349 -33.939106
H -27.793148 55.821516 -17.946103
H -37.305673 39.396424 -33.957209
12
Step 939
C -34.145913 37.750605 -40.321621
C -34.508345 41.751605 -35.896078
C -42.017938 38.608944 -34.208442
C -41.729628 46.321624 -32.218499
C -37.441470 48.506729 -34.382101
C -37.096916 38.350889 -33.823816
H -34.308627 42.079103 -35.959547
H -35.221833 41.418631 -35.142255
H -20.591968 25.565547 -31.124872
H -43.133917 36.201231 -33.941026
H -27.780261 55.836253 -17.928098
H -37.299752 39.386997 -33.959178
12
Step 940
C -34.143285 37.746232 -40.326015
C -34.507302 41.750259 -35.896784
C -42.023255 38.605682 -34.209080
C -41.733230 46.326730 -32.217210
C -37.439975 48.513988 -34.381314
C -37.096102 38.347831 -33.821425
H -34.305775 42.081867 -35.962355
H -35.221844 41.427830 -35.139843
H -20.575394 25.548475 -31.123433
H -43.137151 36.197110 -33.942945
H -27.767375 55.850989 -17.910093
H -37.293790 39.377619 -33.961175
12
Step 941
C -34.140657 37.741859 -40.330408
C -34.506232 41.748975 -35.897487
C -42.028571 38.602419 -34.209717
C -41.736833 46.331836 -32.215921
C -37.438480 48.521247 -34.380527
C -37.095288 38.344772 -33.819034
H -34.303345 42.083851 -35.965075
H -35.221799 41.437014 -35.137522
H -20.558820 25.531404 -31.121993
H -43.140386 36.192986 -33.944864
H -27.754488 55.865726 -17.892087
H -37.287788 39.368295 -33.963197
12
Step 942
C -34.138029 37.737485 -40.334801
C -34.505130 41.747764 -35.898190
C -42.033887 38.599158 -34.210355
C -41.740436 46.336942 -32.214632
C -37.436985 48.528506 -34.379740
C -37.094473 38.341712 -33.816644
H -34.301406 42.084946 -35.967677
H -35.221693 41.446186 -35.135297
H -20.542245 25.514333 -31.120554
H -43.143623 36.188860 -33.946783
H -27.741602 55.880462 -17.874082
H -37.281750 39.359028 -33.965245
12
Step 943
C -34.135401 37.733112 -40.339195
C -34.503993 41.746630 -35.898894
C -42.039203 38.595896 -34.210992
C -41.744039 46.342047 -32.213343
C -37.435490 48.535765 -34.378953
C -37.093657 38.338650 -33.814253
H -34.300005 42.085077 -35.970135
H -35.221519 41.455350 -35.133173
H -20.525671 25.497262 -31.119115
H -43.146861 36.184730 -33.948702
H -27.728715 55.895199 -17.856077
H -37.275681 39.349823 -33.967319
12
Step 944
C -34.132773 37.728739 -40.343588
C -34.502817 41.745579 -35.899601
C -42.044519 38.592635 -34.211630
C -41.747641 46.347153 -32.212055
C -37.433995 48.543024 -34.378166
C -37.092840 38.335587 -33.811863
H -34.299170 42.084199 -35.972433
H -35.221270 41.464509 -35.131154
H -20.509096 25.480190 -31.117675
H -43.150100 36.180598 -33.950620
H -27.715828 55.909936 -17.838072
H -37.269582 39.340683 -33.969417
12
Step 945
C -34.130145 37.724365 -40.347982
C -34.501604 41.744609 -35.900311
C -42.049835 38.589374 -34.212267
C -41.751244 46.352259 -32.210766
C -37.432500 48.550283 -34.377379
C -37.092022 38.332521 -33.809472
H -34.298904 42.082308 -35.974563
H -35.220942 41.473664 -35.129246
H -20.492522 25.463119 -31.116236
H -43.153341 36.176462 -33.952538
H -27.702942 55.924672 -17.820067
H -37.263459 39.331610 -33.971539
12
Step 946
C -34.127517 37.719992 -40.352375
C -34.500354 41.743719 -35.901023
C -42.055150 38.586113 -34.212905
C -41.754847 46.357365 -32.209477
C -37.431005 48.557542 -34.376592
C -37.091204 38.329452 -33.807081
H -34.299184 42.079437 -35.976527
H -35.220529 41.482817 -35.127451
H -20.475948 25.446048 -31.114796
H -43.156583 36.172324 -33.954456
H -27.690055 55.939409 -17.802061
H -37.257312 39.322609 -33.973685
12
Step 947
C -34.124889 37.715619 -40.356768
C -34.499072 41.742902 -35.901737
C -42.060466 38.582852 -34.213543
C -41.758450 46.362471 -32.208188
C -37.429511 48.564801 -34.375805
C -37.090384 38.326380 -33.804690
H -34.299968 42.075656 -35.978338
H -35.220030 41.491969 -35.125772
H -20.459373 25.428976 -31.113357
H -43.159826 36.168183 -33.956373
H -27.677169 55.954145 -17.784056
H -37.251147 39.313680 -33.975855
12
Step 948
C -34.122261 37.711246 -40.361162
C -34.497763 41.742152 -35.902451
C -42.065781 38.579592 -34.214180
C -41.762053 46.367576 -32.206899
C -37.428016 48.572060 -34.375018
C -37.089563 38.323304 -33.802299
H -34.301198 42.071054 -35.980014
H -35.219441 41.501119 -35.124211
H -20.442799 25.411905 -31.111918
H -43.163071 36.164038 -33.958290
H -27.664282 55.968882 -17.766051
H -37.244965 39.304828 -33.978047
12
Step 949
C -34.119633 37.706872 -40.365555
C -34.496434 41.741457 -35.903162
C -42.071096 38.576332 -34.214818
C -41.765655 46.372682 -32.205610
C -37.426521 48.579319 -34.374231
C -37.088741 38.320224 -33.799907
H -34.302793 42.065764 -35.981583
H -35.218763 41.510265 -35.122768
H -20.426225 25.394834 -31.110478
H -43.166317 36.159891 -33.960207
H -27.651396 55.983618 -17.748046
H -37.238769 39.296054 -33.980262
12
Step 950
C -34.117005 37.702499 -40.369948
C -34.495091 41.740805 -35.903868
C -42.076411 38.573072 -34.215456
C -41.769258 46.377788 -32.204321
C -37.425026 48.586578 -34.373443
C -37.087917 38.317140 -33.797515
H -34.304655 42.059946 -35.983083
H -35.217993 41.519409 -35.121442
H -20.409650 25.377763 -31.109039
H -43.169564 36.155741 -33.962123
H -27.638509 55.998355 -17.730041
H -37.232563 39.287361 -33.982500
12
Step 951
C -34.114377 37.698126 -40.374342
C -34.493747 41.740176 -35.904564
C -42.081726 38.569813 -34.216094
C -41.772861 46.382894 -32.203032
C -37.423531 48.593837 -34.372656
C -37.087093 38.314050 -33.795122
H -34.306661 42.053811 -35.984558
H -35.217129 41.528553 -35.120237
H -20.393076 25.360691 -31.107600
H -43.172813 36.151588 -33.964039
H -27.625623 56.013091 -17.712035
H -37.226348 39.278750 -33.984759
12
Step 952
C -34.111749 37.693752 -40.378735
C -34.492413 41.739550 -35.905246
C -42.087040 38.566553 -34.216731
C -41.776464 46.387999 -32.201743
C -37.422036 48.601096 -34.371869
C -37.086267 38.310956 -33.792728
H -34.308653 42.047628 -35.986070
H -35.216167 41.537702 -35.119152
H -20.376501 25.343620 -31.106160
H -43.176063 36.147432 -33.965955
H -27.612736 56.027828 -17.694030
H -37.220128 39.270221 -33.987040
12
Step 953
C -34.109121 37.689379 -40.383129
C -34.491101 41.738907 -35.905910
C -42.092355 38.563294 -34.217369
C -41.780066 46.393105 -32.200455
C -37.420541 48.608355 -34.371082
C -37.085440 38.307858 -33.790334
H -34.310509 42.041614 -35.987671
H -35.215105 41.546857 -35.118189
H -20.359927 25.326549 -31.104721
H -43.179314 36.143273 -33.967870
H -27.599849 56.042565 -17.676025
H -37.213903 39.261767 -33.989340
12
Step 954
C -34.106493 37.685006 -40.387522
C -34.489818 41.738234 -35.906552
C -42.097669 38.560036 -34.218007
C -41.783669 46.398211 -32.199166
C -37.419046 48.615614 -34.370295
C -37.084612 38.304754 -33.787939
H -34.312139 42.035929 -35.989396
H -35.213939 41.556021 -35.117351
H -20.343353 25.309477 -31.103282
H -43.182567 36.139110 -33.969785
H -27.586963 56.057301 -17.658020
H -37.207674 39.253389 -33.991661
12
Step 955
C -34.103865 37.680633 -40.391915
C -34.488576 41.737511 -35.907167
C -42.102983 38.556777 -34.218645
C -41.787272 46.403317 -32.197877
C -37.417552 48.622873 -34.369508
C -37.083783 38.301646 -33.785543
H -34.313412 42.030809 -35.991302
H -35.212664 41.565201 -35.116639
H -20.326778 25.292406 -31.101842
H -43.185821 36.134945 -33.971700
H -27.574076 56.072038 -17.640015
H -37.201441 39.245089 -33.994002
12
Step 956
C -34.101237 37.676259 -40.396309
C -34.487386 41.736716 -35.907749
C -42.108297 38.553519 -34.219283
C -41.790875 46.408423 -32.196588
C -37.416057 48.630132 -34.368721
C -37.082953 38.298532 -33.783146
H -34.314185 42.026508 -35.993457
H -35.211277 41.574398 -35.116056
H -20.310204 25.275335 -31.100403
H -43.189077 36.130777 -33.973615
H -27.561190 56.086774 -17.622009
H -37.195206 39.236868 -33.996364
12
Step 957
C -34.098609 37.671886 -40.400702
C -34.486256 41.735837 -35.908295
C -42.113611 38.550261 -34.219921
C -41.794477 46.413528 -32.195299
C -37.414562 48.637391 -34.367934
C -37.082122 38.295413 -33.780748
H -34.314378 42.023172 -35.995903
H -35.209773 41.583617 -35.115605
H -20.293630 25.258264 -31.098964
H -43.192334 36.126606 -33.975529
H -27.548303 56.101511 -17.604004
H -37.188970 39.228727 -33.998746
12
Step 958
C -34.095981 37.667513 -40.405095
C -34.485189 41.734868 -35.908803
C -42.118925 38.547003 -34.220559
C -41.798080 46.418634 -32.194010
C -37.413067 48.644650 -34.367147
C -37.081289 38.292288 -33.778350
H -34.313947 42.020883 -35.998667
H -35.208150 41.592857 -35.115289
H -20.277055 25.241192 -31.097524
H -43.195592 36.122432 -33.977443
H -27.535417 56.116247 -17.585999
H -37.182733 39.220668 -34.001150
12
Step 959
C -34.093354 37.663140 -40.409489
C -34.484187 41.733805 -35.909270
C -42.124239 38.543746 -34.221196
C -41.801683 46.423740 -32.192721
C -37.411572 48.651909 -34.366360
C -37.080456 38.289158 -33.775950
H -34.312878 42.019668 -36.001764
H -35.206406 41.602120 -35.115107
H -20.260481 25.224121 -31.096085
H -43.198851 36.118254 -33.979356
H -27.522530 56.130984 -17.567994
H -37.176496 39.212691 -34.003575
12
Step 960
C -34.090726 37.658766 -40.413882
C -34.483248 41.732651 -35.909698
C -42.129552 38.540489 -34.221834
C -41.805286 46.428846 -32.191432
C -37.410077 48.659168 -34.365573
C -37.079622 38.286021 -33.773549
H -34.311187 42.019498 -36.005195
H -35.204541 41.611405 -35.115062
H -20.243906 25.207050 -31.094646
H -43.202112 36.114074 -33.981270
H -27.509644 56.145721 -17.549988
H -37.170258 39.204797 -34.006022
12
Step 961
C -34.088098 37.654393 -40.418276
C -34.482369 41.731415 -35.910086
C -42.134866 38.537232 -34.222472
C -41.808889 46.433951 -32.190143
C -37.408582 48.666426 -34.364786
C -37.078787 38.282879 -33.771147
H -34.308923 42.020289 -36.008944
H -35.202554 41.620707 -35.115154
H -20.227332 25.189978 -31.093206
H -43.205375 36.109890 -33.983183
H -27.496757 56.160457 -17.531983
H -37.164020 39.196987 -34.008493
12
Step 962
C -34.085470 37.650020 -40.422669
C -34.481542 41.730107 -35.910439
C -42.140179 38.533975 -34.223110
C -41.812491 46.439057 -32.188855
C -37.407088 48.673685 -34.363999
C -37.077951 38.279731 -33.768743
H -34.306167 42.021895 -36.012976
H -35.200448 41.630024 -35.115380
H -20.210758 25.172907 -31.091767
H -43.208638 36.105704 -33.985095
H -27.483870 56.175194 -17.513978
H -37.157781 39.189261 -34.010987
12
Step 963
C -34.082842 37.645646 -40.427062
C -34.480756 41.728748 -35.910762
C -42.145492 38.530718 -34.223749
C -41.816094 46.444163 -32.187566
C -37.405593 48.680944 -34.363212
C -37.077114 38.276576 -33.766338
H -34.303048 42.024089 -36.017227
H -35.198225 41.639351 -35.115740
H -20.194183 25.155836 -31.090328
H -43.211903 36.101514 -33.987008
H -27.470984 56.189930 -17.495973
H -37.151540 39.181619 -34.013505
12
Step 964
C -34.080214 37.641273 -40.431456
C -34.479999 41.727361 -35.911061
C -42.150806 38.527462 -34.224387
C -41.819697 46.449269 -32.186277
C -37.404098 48.688203 -34.362425
C -37.076277 38.273416 -33.763931
H -34.299710 42.026614 -36.021620
H -35.195889 41.648682 -35.116231
H -20.177609 25.138765 -31.088888
H -43.215169 36.097322 -33.988920
H -27.458097 56.204667 -17.477968
H -37.145298 39.174062 -34.016048
12
Step 965
C -34.077586 37.636900 -40.435849
C -34.479264 41.725954 -35.911339
C -42.156119 38.524206 -34.225025
C -41.823300 46.454375 -32.184988
C -37.402603 48.695462 -34.361638
C -37.075438 38.270249 -33.761523
H -34.296217 42.029352 -36.026122
H -35.193445 41.658014 -35.116848
H -20.161035 25.121693 -31.087449
H -43.218437 36.093126 -33.990831
H -27.445211 56.219403 -17.459962
H -37.139056 39.166588 -34.018615
12
Step 966
C -34.074958 37.632527 -40.440242
C -34.478542 41.724548 -35.911605
C -42.161432 38.520951 -34.225663
C -41.826902 46.459480 -32.183699
C -37.401108 48.702721 -34.360851
C -37.074599 38.267077 -33.759114
H -34.292705 42.032078 -36.030650
H -35.190888 41.667344 -35.117594
H -20.144460 25.104622 -31.086010
H -43.221706 36.088927 -33.992743
H -27.432324 56.234140 -17.441957
H -37.132815 39.159197 -34.021207
12
Step 967
C -34.072330 37.628153 -40.444636
C -34.477819 41.723162 -35.911864
C -42.166744 38.517695 -34.226301
C -41.830505 46.464586 -32.182410
C -37.399613 48.709980 -34.360064
C -37.073759 38.263898 -33.756703
H -34.289317 42.034554 -36.035112
H -35.188217 41.676672 -35.118473
H -20.127886 25.087551 -31.084570
H -43.224976 36.084725 -33.994654
H -27.419438 56.248876 -17.423952
H -37.126573 39.151889 -34.023824
12
Step 968
C -34.069702 37.623780 -40.449029
C -34.477087 41.721812 -35.912123
C -42.172057 38.514440 -34.226939
C -41.834108 46.469692 -32.181121
C -37.398118 48.717239 -34.359276
C -37.072919 38.260713 -33.754290
H -34.286168 42.036594 -36.039429
H -35.185424 41.685998 -35.119493
H -20.111311 25.070480 -31.083131
H -43.228248 36.080520 -33.996565
H -27.406551 56.263613 -17.405947
H -37.120332 39.144663 -34.026466
12
Step 969
C -34.067074 37.619407 -40.453423
C -34.476339 41.720509 -35.912387
C -42.177370 38.511185 -34.227577
C -41.837711 46.474798 -32.179832
C -37.396623 48.724498 -34.358489
C -37.072078 38.257521 -33.751875
H -34.283348 42.038064 -36.043534
H -35.182502 41.695325 -35.120660
H -20.094737 25.053408 -31.081692
H -43.231521 36.076312 -33.998476
H -27.393665 56.278350 -17.387942
H -37.114092 39.137519 -34.029134
12
Step 970
C -34.064446 37.615033 -40.457816
C -34.475570 41.719262 -35.912660
C -42.182682 38.507930 -34.228216
C -41.841314 46.479903 -32.178543
C -37.395129 48.731757 -34.357702
C -37.071236 38.254323 -33.749459
H -34.280923 42.038868 -36.047375
H -35.179445 41.704653 -35.121981
H -20.078163 25.036337 -31.080252
H -43.234796 36.072101 -34.000386
H -27.380778 56.293086 -17.369936
H -37.107853 39.130457 -34.031828
12
Step 971
C -34.061818 37.610660 -40.462209
C -34.474776 41.718075 -35.912945
C -42.187994 38.504676 -34.228854
C -41.844916 46.485009 -32.177255
C -37.393634 48.739016 -34.356915
C -37.070394 38.251119 -33.747040
H -34.278937 42.038948 -36.050911
H -35.176245 41.713986 -35.123461
H -20.061588 25.019266 -31.078813
H -43.238071 36.067886 -34.002296
H -27.367891 56.307823 -17.351931
H -37.101614 39.123475 -34.034548
12
Step 972
C -34.059190 37.606287 -40.466603
C -34.473954 41.716952 -35.913245
C -42.193307 38.501422 -34.229492
C -41.848519 46.490115 -32.175966
C -37.392139 48.746275 -34.356128
C -37.069552 38.247909 -33.744620
H -34.277434 42.038249 -36.054104
H -35.172898 41.723325 -35.125106
H -20.045014 25.002194 -31.077374
H -43.241349 36.063669 -34.004206
H -27.355005 56.322559 -17.333926
H -37.095377 39.116573 -34.037295
12
Step 973
C -34.056562 37.601914 -40.470996
C -34.473103 41.715896 -35.913561
C -42.198619 38.498168 -34.230130
C -41.852122 46.495221 -32.174677
C -37.390644 48.753534 -34.355341
C -37.068709 38.244692 -33.742198
H -34.276438 42.036741 -36.056926
H -35.169401 41.732673 -35.126919
H -20.028440 24.985123 -31.075934
H -43.244627 36.059448 -34.006115
H -27.342118 56.337296 -17.315921
H -37.089140 39.109750 -34.040068
12
Step 974
C -34.053934 37.597540 -40.475389
C -34.472221 41.714907 -35.913896
C -42.203931 38.494915 -34.230769
C -41.855725 46.500327 -32.173388
C -37.389149 48.760793 -34.354554
C -37.067866 38.241469 -33.739773
H -34.275959 42.034423 -36.059363
H -35.165753 41.742028 -35.128901
H -20.011865 24.968052 -31.074495
H -43.247907 36.055224 -34.008024
H -27.329232 56.352032 -17.297916
H -37.082903 39.103007 -34.042870
12
Step 975
C -34.051306 37.593167 -40.479783
C -34.471310 41.713983 -35.914248
C -42.209243 38.491661 -34.231407
C -41.859327 46.505432 -32.172099
C -37.387654 48.768052 -34.353767
C -37.067022 38.238239 -33.737347
H -34.275984 42.031322 -36.061417
H -35.161951 41.751391 -35.131052
H -19.995291 24.950981 -31.073056
H -43.251188 36.050997 -34.009933
H -27.316345 56.366769 -17.279910
H -37.076665 39.096342 -34.045700
12
Step 976
C -34.048678 37.588794 -40.484176
C -34.470372 41.713119 -35.914616
C -42.214554 38.488408 -34.232046
C -41.862930 46.510538 -32.170810
C -37.386159 48.775311 -34.352980
C -37.066179 38.235003 -33.734918
H -34.276483 42.027491 -36.063104
H -35.157999 41.760761 -35.133372
H -19.978716 24.933909 -31.071616
H -43.254470 36.046768 -34.011842
H -27.303459 56.381506 -17.261905
H -37.070426 39.089756 -34.048559
12
Step 977
C -34.046050 37.584420 -40.488570
C -34.469411 41.712310 -35.914998
C -42.219866 38.485155 -34.232684
C -41.866533 46.515644 -32.169521
C -37.384664 48.782570 -34.352193
C -37.065335 38.231761 -33.732487
H -34.277407 42.023009 -36.064456
H -35.153900 41.770133 -35.135855
H -19.962142 24.916838 -31.070177
H -43.257754 36.042534 -34.013750
H -27.290572 56.396242 -17.243900
H -37.064185 39.083249 -34.051447
12
Step 978
C -34.043422 37.580047 -40.492963
C -34.468431 41.711547 -35.915393
C -42.225178 38.481903 -34.233322
C -41.870136 46.520750 -32.168232
C -37.383170 48.789829 -34.351406
C -37.064491 38.228513 -33.730054
H -34.278699 42.017962 -36.065515
H -35.149667 41.779506 -35.138489
H -19.945568 24.899767 -31.068737
H -43.261039 36.038298 -34.015658
H -27.277686 56.410979 -17.225895
H -37.057942 39.076820 -34.054366
12
Step 979
C -34.040794 37.575674 -40.497356
C -34.467436 41.710825 -35.915796
C -42.230489 38.478651 -34.233961
C -41.873738 46.525855 -32.166943
C -37.381675 48.797088 -34.350619
C -37.063647 38.225258 -33.727618
H -34.280307 42.012428 -36.066318
H -35.145305 41.788875 -35.141267
H -19.928993 24.882695 -31.067298
H -43.264326 36.034059 -34.017566
H -27.264799 56.425715 -17.207890
H -37.051695 39.070470 -34.057316
12
Step 980
C -34.038166 37.571301 -40.501750
C -34.466431 41.710135 -35.916204
C -42.235800 38.475399 -34.234599
C -41.877341 46.530961 -32.165655
C -37.380180 48.804347 -34.349832
C -37.062803 38.221998 -33.725181
H -34.282161 42.006521 -36.066917
H -35.140820 41.798238 -35.144186
H -19.912419 24.865624 -31.065859
H -43.267613 36.029816 -34.019473
H -27.251912 56.440452 -17.189884
H -37.045443 39.064199 -34.060297
12
Step 981
C -34.035538 37.566927 -40.506143
C -34.465423 41.709463 -35.916612
C -42.241112 38.472147 -34.235238
C -41.880944 46.536067 -32.164366
C -37.378685 48.811606 -34.349045
C -37.061959 38.218731 -33.722740
H -34.284175 42.000387 -36.067380
H -35.136214 41.807595 -35.147241
H -19.895845 24.848553 -31.064419
H -43.270902 36.025571 -34.021380
H -27.239026 56.455188 -17.171879
H -37.039186 39.058007 -34.063312
12
Step 982
C -34.032910 37.562554 -40.510536
C -34.464421 41.708796 -35.917013
C -42.246423 38.468895 -34.235876
C -41.884547 46.541173 -32.163077
C -37.377190 48.818865 -34.348258
C -37.061115 38.215458 -33.720298
H -34.286242 41.994207 -36.067791
H -35.131486 41.816945 -35.150433
H -19.879270 24.831482 -31.062980
H -43.274193 36.021322 -34.023287
H -27.226139 56.469925 -17.153874
H -37.032921 39.051895 -34.066360
12
Step 983
C -34.030282 37.558181 -40.514930
C -34.463437 41.708114 -35.917396
C -42.251734 38.465644 -34.236515
C -41.888150 46.546279 -32.161788
C -37.375695 48.826124 -34.347471
C -37.060271 38.212178 -33.717852
H -34.288234 41.988198 -36.068256
H -35.126636 41.826290 -35.153764
H -19.862696 24.814410 -31.061541
H -43.277485 36.017070 -34.025194
H -27.213253 56.484661 -17.135869
H -37.026649 39.045864 -34.069443
12
Step 984
C -34.027655 37.553807 -40.519323
C -34.462470 41.707416 -35.917763
C -42.257045 38.462393 -34.237153
C -41.891752 46.551384 -32.160499
C -37.374200 48.833382 -34.346684
C -37.059427 38.208893 -33.715405
H -34.290146 41.982378 -36.068781
H -35.121660 41.835627 -35.157237
H -19.846121 24.797339 -31.060101
H -43.280778 36.012815 -34.027100
H -27.200366 56.499398 -17.117864
H -37.020366 39.039915 -34.072562
12
Step 985
C -34.025027 37.549434 -40.523717
C -34.461533 41.706682 -35.918101
C -42.262356 38.459142 -34.237792
C -41.895355 46.556490 -32.159210
C -37.372705 48.840641 -34.345897
C -37.058584 38.205602 -33.712954
H -34.291836 41.976985 -36.069487
H -35.116561 41.844959 -35.160850
H -19.829547 24.780268 -31.058662
H -43.284072 36.008557 -34.029006
H -27.187480 56.514135 -17.099858
H -37.014074 39.034047 -34.075718
12
Step 986
C -34.022399 37.545061 -40.528110
C -34.460636 41.705892 -35.918403
C -42.267666 38.455892 -34.238431
C -41.898958 46.561596 -32.157921
C -37.371211 48.847900 -34.345109
C -37.057740 38.202304 -33.710501
H -34.293172 41.972241 -36.070498
H -35.111342 41.854286 -35.164599
H -19.812973 24.763196 -31.057223
H -43.287368 36.004296 -34.030912
H -27.174593 56.528871 -17.081853
H -37.007769 39.028262 -34.078912
12
Step 987
C -34.019771 37.540688 -40.532503
C -34.459788 41.705036 -35.918660
C -42.272977 38.452642 -34.239069
C -41.902561 46.566702 -32.156632
C -37.369716 48.855159 -34.344322
C -37.056897 38.199000 -33.708046
H -34.294063 41.968295 -36.071900
H -35.106008 41.863608 -35.168478
H -19.796398 24.746125 -31.055783
H -43.290664 36.000031 -34.032818
H -27.161706 56.543608 -17.063848
H -37.001453 39.022561 -34.082144
12
Step 988
C -34.017143 37.536314 -40.536897
C -34.458990 41.704106 -35.918869
C -42.278287 38.449392 -34.239708
C -41.906163 46.571807 -32.155343
C -37.368221 48.862418 -34.343535
C -37.056055 38.195691 -33.705587
H -34.294466 41.965221 -36.073740
H -35.100563 41.872925 -35.172485
H -19.779824 24.729054 -31.054344
H -43.293963 35.995764 -34.034723
H -27.148820 56.558344 -17.045843
H -36.995123 39.016942 -34.085416
12
Step 989
C -34.014515 37.531941 -40.541290
C -34.458244 41.703100 -35.919028
C -42.283598 38.446142 -34.240347
C -41.909766 46.576913 -32.154055
C -37.366726 48.869677 -34.342748
C -37.055213 38.192375 -33.703126
H -34.294365 41.963048 -36.076044
H -35.095012 41.882237 -35.176613
H -19.763249 24.711983 -31.052905
H -43.297262 35.991493 -34.036628
H -27.135933 56.573081 -17.027837
H -36.988779 39.011407 -34.088727
12
Step 990
C -34.011887 37.527568 -40.545683
C -34.457550 41.702018 -35.919138
C -42.288908 38.442893 -34.240985
C -41.913369 46.582019 -32.152766
C -37.365231 48.876936 -34.341961
C -37.054371 38.189053 -33.700662
H -34.293758 41.961775 -36.078823
H -35.089360 41.891542 -35.180856
H -19.746675 24.694911 -31.051465
H -43.300563 35.987220 -34.038533
H -27.123047 56.587817 -17.009832
H -36.982421 39.005956 -34.092079
12
Step 991
C -34.009259 37.523194 -40.550077
C -34.456906 41.700863 -35.919198
C -42.294218 38.439644 -34.241624
C -41.916972 46.587125 -32.151477
C -37.363736 48.884195 -34.341174
C -37.053529 38.185725 -33.698195
H -34.292663 41.961369 -36.082067
H -35.083613 41.900840 -35.185209
H -19.730101 24.677840 -31.050026
H -43.303865 35.982943 -34.040437
H -27.110160 56.602554 -16.991827
H -36.976047 39.000588 -34.095472
12
Step 992
C -34.006631 37.518821 -40.554470
C -34.456307 41.699641 -35.919213
C -42.299528 38.436395 -34.242263
C -41.920574 46.592231 -32.150188
C -37.362241 48.891454 -34.340387
C -37.052688 38.182391 -33.695725
H -34.291121 41.961757 -36.085747
H -35.077780 41.910128 -35.189662
H -19.713526 24.660769 -31.048587
H -43.307168 35.978663 -34.042342
H -27.097274 56.617290 -16.973822
H -36.969657 38.995303 -34.098907
12
Step 993
C -34.004003 37.514448 -40.558864
C -34.455747 41.698363 -35.919189
C -42.304838 38.433146 -34.242901
C -41.924177 46.597336 -32.148899
C -37.360746 48.898713 -34.339600
C -37.051848 38.179051 -33.693252
H -34.289205 41.962806 -36.089798
H -35.071873 41.919404 -35.194203
H -19.696952 24.643697 -31.047147
H -43.310473 35.974380 -34.044246
H -27.084387 56.632027 -16.955817
H -36.963251 38.990102 -34.102384
12
Step 994
C -34.001375 37.510075 -40.563257
C -34.455213 41.697049 -35.919138
C -42.310148 38.429898 -34.243540
C -41.927780 46.602442 -32.147610
C -37.359252 48.905972 -34.338813
C -37.051008 38.175705 -33.690776
H -34.287047 41.964293 -36.094092
H -35.065906 41.928668 -35.198814
H -19.680378 24.626626 -31.045708
H -43.313779 35.970094 -34.046149
H -27.071501 56.646764 -16.937811
H -36.956828 38.984985 -34.105903
12
Step 995
C -33.998747 37.505701 -40.567650
C -34.454691 41.695719 -35.919074
C -42.315457 38.426650 -34.244179
C -41.931383 46.607548 -32.146321
C -37.357757 48.913231 -34.338026
C -37.050169 38.172353 -33.688297
H -34.284791 41.965969 -36.098485
H -35.059896 41.937918 -35.203479
H -19.663803 24.609555 -31.044269
H -43.317086 35.965804 -34.048053
H -27.058614 56.661500 -16.919806
H -36.950385 38.979952 -34.109467
12
Step 996
C -33.996119 37.501328 -40.572044
C -34.454179 41.694378 -35.919000
C -42.320767 38.423402 -34.244818
C -41.934986 46.612654 -32.145032
C -37.356262 48.920490 -34.337239
C -37.049331 38.168995 -33.685816
H -34.282478 41.967766 -36.102935
H -35.053852 41.947157 -35.208184
H -19.647229 24.592484 -31.042829
H -43.320395 35.961512 -34.049956
H -27.045727 56.676237 -16.901801
H -36.943925 38.975003 -34.113074
12
Step 997
C -33.993491 37.496955 -40.576437
C -34.453667 41.693038 -35.918926
C -42.326077 38.420154 -34.245457
C -41.938588 46.617759 -32.143743
C -37.354767 48.927749 -34.336452
C -37.048493 38.165631 -33.683331
H -34.280185 41.969552 -36.107362
H -35.047787 41.956384 -35.212917
H -19.630654 24.575412 -31.041390
H -43.323704 35.957217 -34.051859
H -27.032841 56.690973 -16.883796
H -36.937445 38.970140 -34.116726
12
Step 998
C -33.990863 37.492582 -40.580830
C -34.453146 41.691714 -35.918862
C -42.331386 38.416907 -34.246096
C -41.942191 46.622865 -32.142455
C -37.353272 48.935008 -34.335665
C -37.047656 38.162262 -33.680842
H -34.278021 41.971148 -36.111647
H -35.041716 41.965603 -35.217659
H -19.614080 24.558341 -31.039951
H -43.327015 35.952918 -34.053762
H -27.019954 56.705710 -16.865791
H -36.930945 38.965362 -34.120423
12
Step 999
C -33.988235 37.488208 -40.585224
C -34.452609 41.690413 -35.918816
C -42.336695 38.413660 -34.246734
C -41.945794 46.627971 -32.141166
C -37.351777 48.942267 -34.334878
C -37.046820 38.158886 -33.678351
H -34.276046 41.972450 -36.115722
H -35.035654 41.974818 -35.222394
H -19.597506 24.541270 -31.038511
H -43.330327 35.948617 -34.055664
H -27.007068 56.720446 -16.847785
H -36.924424 38.960669 -34.124166
